LAMMPS (16 Mar 2018)
# some global params
units real
boundary p p p #all periodic
atom_style full #bonds, bends, torsions, etc
timestep 1.000000 # femtoseconds (1e-15 s)

# the atoms file
#read_restart water_pair.restart
read_data water_pair.xyz
  orthogonal box = (-5 -5 -5) to (5 5 5)
  1 by 1 by 1 MPI processor grid
  reading atoms ...
  6 atoms
  scanning bonds ...
  2 = max bonds/atom
  reading bonds ...
  6 bonds
  2 = max # of 1-2 neighbors
  2 = max # of 1-3 neighbors
  4 = max # of 1-4 neighbors
  2 = max # of special neighbors
#replicate 10 10 10

# methods for potential/force calculations
kspace_style ewald/disp 1.0e-6
pair_style lj/cut/coul/long 10

#pair_characterization eps sigma cut_1 cut_2
pair_coeff 2 2 0 0.898 2.7 #H-H sigma = 2*r_min
pair_coeff 1 2 0 0.4 2.7 #O-H Mixing rules were RMS
pair_coeff 1 1 0.1521 3.15066 9.45 #O-O  Parameters from Jorgensen, cutoff is 3*sig

bond_style harmonic
bond_coeff 1 669.13 1.0
bond_coeff 2 164.00 1.633

#velocity all create 298 3

dump Dump all xyz 10 lammps_traj.xyz
dump_modify Dump sort id
dump_modify Dump element O H
dump_modify Dump pbc yes

dump Dumplammps all atom 100 dump.lammps

restart 10 water_pair.1.restart water_pair.restart

thermo_style one #print to terminal
thermo 10

velocity all create 100 12345 rot yes mom yes dist gaussian
fix 2 all nvt temp 2.98 2.98 100 #iso 10 10 1000 random_number atoms_assigned ensemble thermostat start_temp end_temp gradient_step
#fix 3 all rigid/nvt molecule temp 293 293 100

run 20000
EwaldDisp initialization ...
  G vector = 0.311077   accuracy = 0.000332064
Neighbor list info ...
  update every 1 steps, delay 10 steps, check yes
  max neighbors/atom: 2000, page size: 100000
  master list distance cutoff = 12
  ghost atom cutoff = 12
  binsize = 6, bins = 2 2 2
  2 neighbor lists, perpetual/occasional/extra = 2 0 0
  (1) pair lj/cut/coul/long, perpetual
      attributes: half, newton on
      pair build: half/bin/newton
      stencil: half/bin/3d/newton
      bin: standard
  (2) pair lj/cut/coul/long, perpetual, copy from (1)
      attributes: half, newton on
      pair build: copy
      stencil: none
      bin: none
  vectors: nbox = 4, nkvec = 128
Per MPI rank memory allocation (min/avg/max) = 15.11 | 15.11 | 15.11 Mbytes
Step Temp E_pair E_mol TotEng Press 
       0          100    4.9003302    15.700542    22.091277    5000.5043 
      10    96.427536    2.9991414    8.0784552    12.514757   -3104.7643 
      20    286.44985    3.3403764   0.89975205    8.5093914    2725.6179 
      30    169.75853     3.052135   0.39401973    5.9762444   -1052.5865 
      40    96.952564    2.4214812   0.78668047    4.6531475    1026.2219 
      50    55.517866     2.391802   0.41632107    3.6355641   -28.836057 
      60    49.884932    1.4308831   0.60414484    2.7785155    84.031738 
      70    61.502852   0.75152204   0.22464267    1.8928063    371.92481 
      80    77.978354  -0.40323676   0.11527287   0.87422942   -403.93747 
      90    82.635989   -1.6341048  0.070536919  -0.33195698    312.82543 
     100    71.344772   -2.6366312  0.078767372   -1.4945377   -574.74843 
     110    52.136233   -3.2165198  0.023931351   -2.4155475     74.33868 
     120    33.230876   -3.6014716   0.10787534   -2.9983216    -510.7265 
     130    23.678293   -3.7164793  0.014119433   -3.3494574   -101.32909 
     140    22.777372   -4.0851494   0.13571225    -3.609962   -404.91061 
     150     27.97523    -4.354347   0.05371061   -3.8836921    -260.5493 
     160    32.179637   -4.8312792   0.13671431    -4.214958   -342.91761 
     170    33.194561   -5.1989531   0.11949639   -4.5847233   -382.54182 
     180     30.68687   -5.5503569   0.14052326    -4.952475   -323.77145 
     190    27.561251   -5.8543211   0.15986033   -5.2836865   -429.87464 
     200    24.939585   -6.0879588   0.14010224   -5.5761557   -321.06079 
     210    23.629539    -6.389526   0.19810457   -5.8392456   -418.21581 
     220    23.580491   -6.6215485   0.17976744   -6.0903363   -318.31847 
     230    23.753023   -6.9373517   0.24296063   -6.3403748   -361.12823 
     240    23.184854   -7.1737668   0.24070232   -6.5875162   -281.47071 
     250    21.428541   -7.4422338   0.30185933   -6.8210024     -254.902 
     260    18.071415   -7.6069533   0.31290932   -7.0247067   -180.73007 
     270    13.145551   -7.7235154   0.34757561   -7.1800178   -92.461952 
     280    7.6369559   -7.7560379     0.365759   -7.2764573   -22.800209 
     290    3.0867463    -7.751372   0.38465664   -7.3207103    65.326699 
     300    0.7685198   -7.7454527   0.40016049   -7.3338381    81.802669 
     310   0.58246721   -7.7442738   0.39802452   -7.3375681    98.573808 
     320    1.3701698   -7.7633809   0.39976455   -7.3431953    50.520602 
     330    2.0349322   -7.7634515   0.38037634   -7.3527465     15.38017 
     340    2.0756282   -7.7618685    0.3674148   -7.3635184   -37.743254 
     350    1.5944555    -7.740799   0.34458044   -7.3724548   -73.442815 
     360   0.95557253   -7.7289216   0.33651972   -7.3781599   -98.049789 
     370   0.52233158   -7.7176868   0.32892152   -7.3809804   -116.84829 
     380    0.4314579   -7.7207713   0.33154144   -7.3827994   -112.15287 
     390   0.57040473   -7.7304789   0.33748276   -7.3844948   -112.11792 
     400   0.76033974     -7.74649   0.34845527   -7.3867026   -88.270693 
     410   0.86891942   -7.7611395   0.35912351   -7.3890656   -73.404873 
     420   0.84985402   -7.7703518   0.36634852    -7.391337   -44.186324 
     430   0.71870537   -7.7744994   0.37056302   -7.3932248   -25.401239 
     440   0.55919061   -7.7756863   0.37276807    -7.394584   -9.3882547 
     450   0.50619992   -7.7744574   0.37134782   -7.3955651   -2.1281236 
     460   0.60509588   -7.7757452   0.37028259   -7.3964443   -10.023158 
     470    0.7599622    -7.774022   0.36531455   -7.3973809   -18.596883 
     480   0.83996257   -7.7747607   0.36392237   -7.3983194   -42.407385 
     490   0.81863426   -7.7668266   0.35551949   -7.3991061   -55.770945 
     500   0.76849791   -7.7622148   0.35107969   -7.3996814   -76.815722 
     510   0.75463391   -7.7536102   0.34231861   -7.4000444   -83.944594 
     520   0.81568522   -7.7539283   0.34149852   -7.4002727   -91.304023 
     530   0.96475519   -7.7547508   0.34004397   -7.4003281   -88.671411 
     540    1.1696014    -7.763038   0.34542741   -7.4001787   -79.628413 
     550    1.3477621   -7.7733177   0.35345435   -7.3997763   -69.052773 
     560    1.4303639    -7.783072   0.36265156   -7.3991023   -49.459643 
     570    1.4593499   -7.7918147   0.37176845    -7.398296   -37.755103 
     580    1.5469201   -7.7925802   0.37241373   -7.3971111   -20.215099 
     590    1.7732668   -7.7965823   0.37457482   -7.3955786   -17.946861 
     600    2.1344195   -7.7915511   0.36631658    -7.393423   -16.100522 
     610    2.5596134   -7.7926316   0.36367594   -7.3908071   -27.575141 
     620    2.9466585   -7.7844172   0.35298017   -7.3875199   -42.031718 
     630    3.1842311   -7.7839437   0.35260982   -7.3838759   -58.987793 
     640    3.2836709   -7.7744211   0.34534348   -7.3801377   -77.541835 
     650    3.4157875   -7.7719975   0.34471654   -7.3763718   -86.422622 
     660    3.7573437    -7.767073   0.33853497   -7.3725384   -95.566387 
     670    4.3131279   -7.7718167   0.33899469   -7.3685389   -91.059301 
     680    4.9091754   -7.7770272   0.33929713   -7.3645635   -85.827581 
     690    5.3542576   -7.7846836   0.34375867   -7.3611248   -70.496719 
     700    5.5163864   -7.7932298      0.35228   -7.3587333   -53.892566 
     710    5.3744612   -7.7998912   0.36206618   -7.3577238   -38.414068 
     720    5.0880293   -7.8061118   0.37240376   -7.3578758   -22.894593 
     730    4.9102888    -7.806154   0.37378163   -7.3591891   -19.915138 
     740     4.958305   -7.8073633   0.37212839   -7.3613361   -18.359182 
     750    5.0578759    -7.802633   0.36260085   -7.3646493   -31.927525 
     760    4.9426707   -7.7962602   0.35358337    -7.369011   -43.934242 
     770    4.5233263   -7.7839882   0.34254624    -7.374026   -61.438646 
     780    3.9036887   -7.7751191   0.33781207   -7.3791262   -75.314771 
     790    3.2742526   -7.7681142   0.33555415   -7.3837605   -83.639316 
     800    2.8089366   -7.7670117   0.33724975   -7.3878974   -89.792795 
     810    2.6025199   -7.7683316   0.33812978   -7.3914137   -83.179809 
     820    2.5838923   -7.7749354   0.34172183   -7.3947032   -78.724482 
     830    2.5518277   -7.7802726   0.34436383   -7.3978762   -62.168575 
     840    2.3562017   -7.7850222   0.34910392   -7.4008014   -51.487021 
     850    2.0024426   -7.7850261   0.35194116   -7.4032404   -35.824704 
     860    1.6197516   -7.7877716   0.35854965   -7.4050811   -28.326954 
     870    1.3375452   -7.7877819   0.36147218   -7.4063748   -25.637846 
     880    1.2255959    -7.789959   0.36428162   -7.4074111   -27.765661 
     890    1.2743156   -7.7861102   0.35920504   -7.4079127   -39.328208 
     900    1.3751604   -7.7835819   0.35469162   -7.4083948   -48.360896 
     910    1.3932025   -7.7743215   0.34497864   -7.4085786   -65.387642 
     920    1.2690024   -7.7657595   0.33836896   -7.4084772   -72.720777 
     930    1.0708491   -7.7560353   0.33174173   -7.4083336   -83.092721 
     940   0.92072758   -7.7536211   0.33173713   -7.4081614   -83.510369 
     950   0.89460504   -7.7554961   0.33445475   -7.4077081   -81.003474 
     960     1.003758   -7.7613322   0.33922513    -7.407147   -73.161679 
     970    1.1957663    -7.769895   0.34594628    -7.406127   -57.640405 
     980    1.3742851   -7.7757062   0.35050948   -7.4047143    -46.02225 
     990    1.4463951     -7.78154    0.3570525   -7.4029303   -26.830363 
    1000    1.4067537   -7.7781717   0.35628968   -7.4009157    -21.06961 
    1010    1.3792911   -7.7794499   0.36014132   -7.3987515   -12.862316 
    1020    1.4983025   -7.7754472   0.35681214   -7.3963043   -21.819667 
    1030    1.7974037   -7.7794088   0.35933297   -7.3932872   -32.700553 
    1040    2.2020908    -7.773095   0.35084853   -7.3894264   -50.882911 
    1050    2.6129251   -7.7714831   0.34796431   -7.3845757   -72.735596 
    1060    2.9674359   -7.7596093   0.33652816   -7.3788543   -85.941944 
    1070    3.2491246   -7.7520778   0.33112691   -7.3725257   -104.84157 
    1080    3.5414554   -7.7408583   0.32229392   -7.3657824   -101.54774 
    1090    3.9812197   -7.7397732   0.32196323   -7.3584737   -106.23727 
    1100    4.6421235   -7.7465937   0.32668698   -7.3507203   -85.396074 
    1110     5.405706   -7.7588579   0.33576381   -7.3425272   -71.582157 
    1120    5.9985363   -7.7737258   0.34969789   -7.3346254   -40.812871 
    1130    6.2219614    -7.780488   0.36001555     -7.32774   -15.389465 
    1140    6.1209506   -7.7861911   0.37195577   -7.3230084    3.5117072 
    1150    5.9011103   -7.7778969   0.36957659   -7.3203698    18.221973 
    1160    5.7451077   -7.7721309   0.36694209   -7.3195635    4.4717791 
    1170    5.6384651   -7.7601603   0.35580915   -7.3203152   -4.9388154 
    1180    5.4045493   -7.7539516   0.35094349   -7.3224584   -43.713907 
    1190    4.8686003   -7.7394782   0.34124275   -7.3256736   -62.440429 
    1200    4.0574204   -7.7256226   0.33584205   -7.3293085   -95.422129 
    1210    3.1977207   -7.7100081    0.3297147   -7.3326344   -105.99858 
    1220    2.5164678   -7.6995224   0.32671105   -7.3353058   -115.62032 
    1230    2.1186013   -7.6926651   0.32371927   -7.3373701   -112.48573 
    1240     1.940467   -7.6925539   0.32450031   -7.3391328   -95.116662 
    1250    1.8476902   -7.6975972   0.32958666   -7.3404725   -79.569397 
    1260    1.6884979   -7.7072896   0.34057731   -7.3415469   -44.193048 
    1270    1.3585706   -7.7137684    0.3512606   -7.3422596   -24.685855 
    1280   0.92595441   -7.7213162   0.36490322   -7.3426126    7.5557209 
    1290   0.62477518   -7.7223535   0.37034972   -7.3426921    13.344232 
    1300   0.67430609   -7.7261345     0.373598   -7.3424866    17.800656 
    1310    1.0387902   -7.7199001    0.3622301   -7.3421878    1.1203098 
    1320    1.4597629   -7.7169941   0.35376035   -7.3414774   -24.283329 
    1330    1.7120145   -7.7057161   0.33986504   -7.3403351   -49.978481 
    1340    1.7451029   -7.6987435   0.33384748   -7.3388869   -84.455515 
    1350    1.6954742   -7.6889812   0.32648913   -7.3372227   -97.862342 
    1360    1.7794366   -7.6866925   0.32482899   -7.3353427   -120.19268 
    1370    2.2094224   -7.6934235    0.3273946   -7.3330996   -113.66792 
    1380    3.0681132    -7.703154   0.32764597   -7.3297807   -113.22378 
    1390    4.1735936   -7.7228294   0.33538566   -7.3252403   -87.555948 
    1400     5.137461   -7.7327245   0.33623601   -7.3199195   -61.062212 
    1410    5.6117862   -7.7512729   0.35274492   -7.3148897   -27.347683 
    1420    5.5645976    -7.750811   0.35674961   -7.3111263    9.9313769 
    1430    5.3523209   -7.7630565   0.37454662   -7.3087386    25.159539 
    1440    5.3915264   -7.7622886   0.37405198    -7.307881    39.996992 
    1450    5.8500505   -7.7752801   0.37978395   -7.3083067    15.062789 
    1460    6.4243311   -7.7707154   0.36442886    -7.310538   -2.6087905 
    1470    6.5793131   -7.7642955   0.35114901   -7.3150881   -46.499857 
    1480    6.0594985   -7.7464403   0.33426315    -7.321866   -73.086033 
    1490    5.1065789   -7.7288441   0.32331085   -7.3294246   -102.95676 
    1500    4.2023596   -7.7190351   0.31984469   -7.3365583   -118.13368 
    1510    3.6228044    -7.714786   0.31775084   -7.3430407   -119.79486 
    1520    3.3997112   -7.7271051   0.32731733   -7.3491183   -118.37606 
    1530    3.3866067   -7.7383976    0.3326699   -7.3552536   -95.478825 
    1540    3.3657057   -7.7558059   0.34425851   -7.3613848   -79.038043 
    1550     3.142931   -7.7623551   0.34828316   -7.3672296   -43.750745 
    1560    2.6595592   -7.7684982   0.35627338   -7.3725866   -23.285319 
    1570       2.1082   -7.7676282   0.35935976   -7.3768477    1.2151166 
    1580    1.7672774   -7.7686857   0.36211393   -7.3802322    7.1983273 
    1590    1.7262277    -7.771685   0.36301096   -7.3829462    2.8951138 
    1600    1.8369483   -7.7736884   0.36079204   -7.3855184   -11.471638 
    1610    1.8983734   -7.7724235   0.35611556   -7.3880145   -36.871081 
    1620    1.8119481    -7.763497   0.34621179   -7.3902799   -56.007347 
    1630    1.5791451   -7.7528226   0.33701719   -7.3922698   -80.811792 
    1640    1.2965162   -7.7430667   0.33009427   -7.3936491   -91.010345 
    1650     1.104395   -7.7366252   0.32559222    -7.394573   -101.30924 
    1660    1.0906212   -7.7391667   0.32776068   -7.3951513   -97.950397 
    1670    1.2263877   -7.7448199    0.3308964   -7.3956454   -89.996346 
    1680    1.3816933   -7.7597053   0.34317515   -7.3959373   -76.086281 
    1690    1.4468666   -7.7664753   0.34885832   -7.3960528   -54.537348 
    1700    1.3940209   -7.7757015   0.35898226   -7.3959426    -37.54757 
    1710    1.2623409   -7.7731159   0.35867559   -7.3956263   -15.921312 
    1720    1.1482522   -7.7743881   0.36213657   -7.3951379    -9.576429 
    1730    1.1682791   -7.7692626   0.35738731   -7.3944632   -4.6976604 
    1740    1.3733301   -7.7686084   0.35466646   -7.3934738   -16.367706 
    1750    1.6604603   -7.7677133   0.35090182   -7.3920639    -31.96374 
    1760    1.8723475   -7.7637201   0.34564079   -7.3901738   -52.857841 
    1770    1.9728385   -7.7602378   0.34292806   -7.3879065    -75.33557 
    1780     2.050142   -7.7483723   0.33259228   -7.3852246   -88.442119 
    1790    2.2148888   -7.7478075   0.33222962   -7.3825671   -103.26771 
    1800    2.5229318   -7.7411964   0.32439473   -7.3791998   -100.62953 
    1810    2.9912635   -7.7511051   0.33137717    -7.375146   -99.657772 
    1820    3.5735914   -7.7557881   0.33230841   -7.3702187   -81.503421 
    1830    4.1108081   -7.7752406   0.34913249   -7.3648404   -64.889604 
    1840    4.4655034   -7.7844205    0.3585067   -7.3593597   -40.843932 
    1850    4.6776766   -7.7954004   0.37153093   -7.3541532   -18.610043 
    1860      4.94604   -7.7973631   0.37413654   -7.3495106   -6.1641356 
    1870    5.3902474    -7.798294   0.37236839   -7.3455891    2.2441791 
    1880    5.9020101   -7.7967167   0.36612513   -7.3426277   -10.529415 
    1890    6.2693667   -7.7884386   0.35379465    -7.341205   -22.281819 
    1900    6.2917726   -7.7837575   0.34808328   -7.3419014   -50.030523 
    1910    5.9023943    -7.773064   0.34061852   -7.3444759   -69.525969 
    1920     5.254293   -7.7672874   0.34056199   -7.3484151    -89.76263 
    1930    4.6518635   -7.7584438   0.33619767   -7.3529146   -100.85114 
    1940    4.2867513   -7.7584517   0.33672525   -7.3578365    -100.7785 
    1950    4.0859894   -7.7617204   0.33781614   -7.3630064   -98.992719 
    1960    3.8657654   -7.7671173   0.34120038   -7.3683014   -80.439786 
    1970    3.5005071   -7.7735727   0.34783564   -7.3735653   -67.877845 
    1980    2.9905368   -7.7786104   0.35567182   -7.3783675   -42.731543 
    1990    2.4293296    -7.785935   0.36738852   -7.3823397   -29.829842 
    2000    1.9600726   -7.7887942   0.37415835   -7.3854228   -15.603378 
    2010    1.7188585   -7.7897895   0.37637552    -7.387796   -13.013236 
    2020    1.6907575   -7.7881138   0.37312824   -7.3897864   -19.772054 
    2030    1.7071186   -7.7813101   0.36429211    -7.391575   -28.753903 
    2040    1.6026207   -7.7734919   0.35660212   -7.3930042   -49.392544 
    2050    1.3513248   -7.7593614   0.34506339   -7.3941578   -59.240508 
    2060    1.0596178   -7.7548489   0.34384894   -7.3952074    -79.01603 
    2070   0.84887245   -7.7476852   0.33944061   -7.3955929   -81.444768 
    2080   0.80721163   -7.7531206   0.34531572   -7.3957742   -88.719153 
    2090   0.95164724   -7.7545593   0.34460901   -7.3957669   -80.995782 
    2100    1.1931968   -7.7659564   0.35261358   -7.3955594   -72.508836 
    2110    1.3725662   -7.7702781   0.35470504   -7.3951163   -59.135066 
    2120    1.3610581   -7.7754719   0.36087984   -7.3943068   -40.022599 
    2130    1.1859624   -7.7757182   0.36466587   -7.3933767   -30.219618 
    2140    0.9971323   -7.7765989   0.36931515   -7.3924224   -14.284109 
    2150   0.95191678   -7.7805468   0.37486414   -7.3914952   -19.121249 
    2160     1.124603   -7.7789044   0.37207097   -7.3900723   -17.853093 
    2170    1.4585684   -7.7814633   0.37153518   -7.3881895   -36.777662 
    2180    1.8060139    -7.771979   0.35963267   -7.3854294   -49.493316 
    2190      1.99368    -7.766133    0.3542882   -7.3821308   -69.499581 
    2200     1.968282   -7.7469691   0.33907605   -7.3785577   -84.776405 
    2210    1.8638954   -7.7392682   0.33663074   -7.3748579   -91.024924 
    2220    1.9058387   -7.7317544   0.33220956   -7.3711401   -99.425477 
    2230    2.2469621    -7.740435    0.3400938   -7.3668523   -86.422041 
    2240    2.8558623   -7.7498687   0.34587478     -7.36143   -81.691062 
    2250    3.5540323   -7.7652723   0.35776611   -7.3545367   -52.520295 
    2260    4.0997559   -7.7759167   0.36818492   -7.3466288   -36.647708 
    2270    4.3369537   -7.7786742    0.3754822   -7.3385538   -8.4979531 
    2280    4.3901571   -7.7744233   0.37824439   -7.3307478    4.6464175 
    2290    4.6078098   -7.7683348   0.37620519   -7.3234546    6.7382359 
    2300    5.2829669   -7.7693475   0.37430766   -7.3163022   0.67588384 
    2310    6.2967074   -7.7719157   0.36878718    -7.309282   -30.208646 
    2320     7.182362   -7.7714793   0.36103936   -7.3033937   -47.517616 
    2330     7.526954    -7.764698   0.35254974   -7.2999662   -87.551776 
    2340     7.252904   -7.7500039   0.34214293   -7.2997633   -97.703504 
    2350    6.6281525   -7.7350345   0.33372542   -7.3025227   -120.66863 
    2360    6.0188051   -7.7223176   0.32539244   -7.3072206   -114.86196 
    2370    5.6812765   -7.7245156   0.32639573   -7.3134458   -109.64151 
    2380    5.6111416   -7.7372414   0.33262054   -7.3209921   -91.506451 
    2390    5.5231494   -7.7570023   0.34487084   -7.3298142   -61.735538 
    2400    5.1007247   -7.7760949   0.36041479   -7.3396586   -40.579828 
    2410    4.2906256   -7.7867184   0.37350538   -7.3492653   -5.9343402 
    2420     3.374045   -7.7930356   0.38533863     -7.35741  0.030296558 
    2430    2.6912088   -7.7864059   0.38224759   -7.3640484    13.714219 
    2440    2.3333902   -7.7836267   0.37945503   -7.3693947   -4.5987323 
    2450    2.1844081   -7.7725049   0.36596232   -7.3739861   -17.811694 
    2460    2.0589521   -7.7700018   0.36131571   -7.3779994   -46.085648 
    2470    1.8459852   -7.7582588   0.34912979   -7.3816163   -68.575613 
    2480    1.5344618   -7.7553205   0.34792738   -7.3845234   -85.775642 
    2490    1.2127031   -7.7466853   0.34188796   -7.3867231   -101.31057 
    2500    1.0130787   -7.7469304   0.34347845    -7.388353   -99.194293 
    2510   0.99221139   -7.7447719   0.34045903   -7.3895248   -100.01656 
    2520    1.0955205   -7.7497407   0.34288229   -7.3905307   -80.545859 
    2530    1.1999778   -7.7563495   0.34700417   -7.3914608   -67.285436 
    2540    1.2104989    -7.763992   0.35375901   -7.3921917    -40.94788 
    2550    1.1164081   -7.7727991   0.36350825   -7.3926518   -22.580524 
    2560   0.97801537    -7.778094   0.37061134   -7.3929063   -6.6286444 
    2570   0.92412739   -7.7862441   0.37951531   -7.3929556   0.42841111 
    2580    1.0577635    -7.785713   0.37713836   -7.3928097   -7.4585846 
    2590    1.3472478   -7.7861548    0.3735739   -7.3925014     -17.9159 
    2600    1.6283528   -7.7759488   0.36017947   -7.3915002    -43.77493 
    2610    1.7537594   -7.7692664   0.35272595   -7.3904023   -62.155258 
    2620    1.7389996   -7.7561506     0.341195   -7.3890375   -87.279383 
    2630    1.7037201   -7.7514374   0.33853154   -7.3875136   -99.368525 
    2640    1.7780497   -7.7479489   0.33570488   -7.3857439   -108.38762 
    2650    2.0469354   -7.7547289   0.34063077   -7.3835905   -107.38678 
    2660    2.5231114   -7.7616466   0.34325419   -7.3807878   -94.506514 
    2670    3.1119434   -7.7722747   0.34867039   -7.3772237    -78.85405 
    2680    3.5856781   -7.7796294   0.35324339   -7.3729449   -48.184626 
    2690    3.7694954   -7.7846595   0.35994759   -7.3685312   -25.624823 
    2700    3.7496495    -7.786173    0.3659505   -7.3643375    4.1888546 
    2710    3.8197945    -7.789439   0.37205972   -7.3604489    13.723808 
    2720    4.2023522   -7.7959662   0.37665841   -7.3566758    15.853474 
    2730    4.8403444   -7.8014563   0.37627436   -7.3530412    -1.243277 
    2740    5.4780197   -7.7993483   0.36793061    -7.349773   -27.986202 
    2750     5.790409   -7.7885158   0.35464974   -7.3475655   -55.858647 
    2760    5.6058918   -7.7707264   0.34025391    -7.346922    -88.29221 
    2770    5.0796159   -7.7528366   0.32931688   -7.3478129    -105.5896 
    2780    4.5795338   -7.7402187   0.32244207   -7.3495231   -122.78154 
    2790    4.3881771   -7.7400091   0.32287658   -7.3517309   -120.32942 
    2800    4.4861496   -7.7516337   0.33009599   -7.3546759   -115.19792 
    2810    4.6590763   -7.7673111   0.33945551   -7.3584165   -95.257673 
    2820    4.6739092   -7.7829049   0.35020901   -7.3630357   -69.857152 
    2830    4.3641828   -7.7893218   0.35602503   -7.3682528     -42.0413 
    2840    3.7371631   -7.7929543   0.36380704   -7.3734484   -12.731408 
    2850     3.021058   -7.7859696   0.36293325   -7.3780103    2.9731134 
    2860    2.5533352    -7.785593   0.36567338   -7.3818646    12.418536 
    2870    2.4503667   -7.7823909   0.36076106   -7.3851094    1.3995002 
    2880    2.5015379   -7.7877657   0.36226177   -7.3882209   -15.910258 
    2890    2.4499693   -7.7805603   0.35305098   -7.3909948   -41.249741 
    2900     2.207454   -7.7744769   0.34789491    -7.393682   -66.323293 
    2910    1.8428057   -7.7592205   0.33579592   -7.3959593   -84.715899 
    2920    1.4666093   -7.7501691   0.33077015   -7.3975405    -101.3087 
    2930     1.203739   -7.7414556   0.32491554   -7.3985995   -102.73093 
    2940    1.1474512   -7.7419305   0.32551565   -7.3993131   -103.39899 
    2950    1.2616067   -7.7504074   0.33175853   -7.3998458    -88.71833 
    2960     1.397528   -7.7613756   0.34044814   -7.4000987   -74.277171 
    2970    1.4093541   -7.7743076   0.35311538   -7.4001871   -51.235203 
    2980    1.2761281   -7.7771187   0.35795437   -7.4001448   -29.547241 
    2990    1.0890576   -7.7815319    0.3654159   -7.3998846   -13.445174 
    3000   0.95862239   -7.7747116   0.36094513   -7.3994791  -0.85787778 
    3010   0.98537852   -7.7736771   0.36009153   -7.3988995   -6.3537231 
    3020    1.1897447   -7.7661326   0.35031233   -7.3980883   -12.780706 
    3030    1.4633022   -7.7672405   0.34848829   -7.3969431   -38.212583 
    3040    1.6371913   -7.7609225    0.3413382   -7.3951836   -56.036663 
    3050    1.6577472   -7.7558576   0.33807063   -7.3930798    -81.64298 
    3060    1.6487508   -7.7468835   0.33153481   -7.3907756   -95.531246 
    3070     1.748401   -7.7419279   0.32767189   -7.3881977   -105.42797 
    3080    2.0099735   -7.7405993   0.32544723   -7.3851953   -107.93275 
    3090    2.4193569   -7.7423051   0.32484195    -7.381405   -95.603325 
    3100    2.9287489   -7.7520714   0.33173989   -7.3766813   -84.689327 
    3110     3.420887   -7.7645439   0.34246696   -7.3710919   -54.820274 
    3120    3.7361663   -7.7785429   0.35791496   -7.3649439   -36.438037 
    3130    3.8910551   -7.7853708    0.3686934   -7.3586849    -5.377509 
    3140    4.1069536   -7.7878442   0.37402706   -7.3526069    4.8114905 
    3150    4.5572908   -7.7868831   0.37238802    -7.346573    10.636542 
    3160    5.1320652   -7.7780982   0.36115086   -7.3404588   -1.0463777 
    3170    5.5203486   -7.7659809   0.34870824   -7.3349971   -26.102814 
    3180    5.5313106   -7.7475612   0.33465546   -7.3304668   -48.029013 
    3190    5.1698296    -7.734332   0.32962838   -7.3276522   -83.426745 
    3200    4.6240442   -7.7203438   0.32526809   -7.3261587   -94.744491 
    3210    4.1956652   -7.7125842   0.32444733   -7.3256045   -115.96619 
    3220    4.0563473   -7.7125866   0.32645809   -7.3256725   -108.19364 
    3230    4.0823692   -7.7140579   0.32708941   -7.3261246   -105.55282 
    3240    3.9507481   -7.7207144   0.33477362   -7.3270586   -83.096619 
    3250    3.4755523    -7.716139   0.33616938   -7.3281698   -57.593608 
    3260    2.7279126   -7.7225903   0.35268782   -7.3292455   -33.576116 
    3270    1.9483696   -7.7174329   0.35839699   -7.3299973   -2.4774184 
    3280    1.4312378   -7.7264315   0.37472503   -7.3303752    3.5115298 
    3290    1.3531163   -7.7212837   0.37064735   -7.3304694    17.586316 
    3300    1.6501873   -7.7273229   0.37238663   -7.3303418   -4.7289802 
    3310     1.963808    -7.715829   0.35662976   -7.3299306   -14.892954 
    3320    1.9102051   -7.7017289   0.34409427   -7.3291649   -48.562594 
    3330    1.4490284   -7.6785917   0.32857555   -7.3284197   -67.179478 
    3340   0.87378783   -7.6602307   0.31947467    -7.327733   -88.211952 
    3350   0.57347792   -7.6562129   0.32052506   -7.3271407   -102.02607 
    3360   0.77155476    -7.656986   0.31900464   -7.3264821   -97.428922 
    3370       1.4629   -7.6786009   0.33167971    -7.325118   -98.544491 
    3380    2.3947264   -7.6930358   0.33493019   -7.3224145   -68.419695 
    3390    3.1046662   -7.7168509    0.3522056   -7.3183732   -56.191467 
    3400    3.2521516   -7.7151392   0.35295597    -7.313713   -14.003265 
    3410    2.9156933   -7.7185694   0.36578996   -7.3093238   0.44165571 
    3420     2.673432   -7.7120338   0.36675668   -7.3054321    23.693441 
    3430    3.1361615   -7.7213938   0.37326553   -7.3013868    19.239237 
    3440    4.4190591   -7.7300824   0.36816193   -7.2960586    2.4008119 
    3450    6.0464132   -7.7403305   0.36055095   -7.2896635    -20.63052 
    3460     7.217594   -7.7408787   0.34993075   -7.2833765   -63.708019 
    3470    7.4342543   -7.7231761   0.33303868   -7.2793369   -81.546976 
    3480    6.8121225   -7.7000936   0.31990831   -7.2786571   -117.37272 
    3490    5.9685378   -7.6771416   0.30770874   -7.2804774   -114.51128 
    3500     5.569011   -7.6748066   0.30783436   -7.2839714   -125.14837 
    3510    5.8026405   -7.6891826   0.31375211   -7.2889476   -104.37095 
    3520    6.3033131   -7.7149623    0.3251419   -7.2958755   -85.294897 
    3530    6.4303936   -7.7452481   0.34403084   -7.3053783   -56.291949 
    3540    5.8264515   -7.7601853   0.35698954   -7.3163581   -20.416155 
    3550    4.6917444   -7.7679534   0.37079282   -7.3272346   -3.0615406 
    3560    3.5554258   -7.7580743   0.36880894   -7.3362751    20.395415 
    3570    2.8705768   -7.7552519   0.36902604   -7.3434427    7.0801913 
    3580    2.6871583   -7.7492036   0.35951354   -7.3496405    0.7319968 
    3590    2.7344802   -7.7480269   0.35179719   -7.3554749   -32.387818 
    3600    2.6744311   -7.7443269   0.34325567   -7.3612114   -53.683213 
    3610    2.3460316   -7.7364297   0.33505263   -7.3664117   -80.095023 
    3620    1.8593062   -7.7312204   0.33295686   -7.3705524   -97.546528 
    3630    1.4312524   -7.7181976   0.32330616     -7.37356   -101.86727 
    3640    1.2230041   -7.7195262    0.3255973   -7.3757012   -106.12362 
    3650    1.2483434   -7.7169524   0.32083321   -7.3775138   -88.944712 
    3660    1.3983561   -7.7323086   0.33222209   -7.3792454   -79.707468 
    3670    1.5192081   -7.7381676   0.33459156   -7.3809337   -50.225939 
    3680     1.471436   -7.7546269   0.35025596   -7.3824406   -34.086584 
    3690     1.258759   -7.7595959   0.35721374   -7.3836215    -10.72921 
    3700    1.0356427   -7.7671711   0.36735534   -7.3843804    -2.844701 
    3710   0.98747404   -7.7658442   0.36625989    -7.384867   -2.6906617 
    3720    1.1603865   -7.7630172   0.36055545   -7.3851673   -11.717998 
    3730    1.4220911   -7.7598045   0.35330969   -7.3852999   -34.696135 
    3740    1.6224755    -7.750616   0.34121885   -7.3852156   -52.453495 
    3750    1.6906896    -7.746435   0.33632819   -7.3849087   -80.029463 
    3760    1.6565207   -7.7365304    0.3274715     -7.38437   -91.735645 
    3770    1.6198998   -7.7380256    0.3303193   -7.3835632   -107.02072 
    3780    1.7057123   -7.7348235   0.32679765   -7.3826038    -105.2074 
    3790    2.0068832   -7.7430661   0.33186259   -7.3812928    -99.77281 
    3800    2.4755672   -7.7491618   0.33256178    -7.379704    -84.10961 
    3810    2.9392624   -7.7617584   0.34055703   -7.3773944   -59.675344 
    3820    3.2370841   -7.7697811   0.34694691   -7.3745886   -36.548902 
    3830     3.353715   -7.7779629   0.35617939   -7.3717995   -7.4723416 
    3840    3.4443377   -7.7867928   0.36637363   -7.3690846    4.5908752 
    3850    3.6990314    -7.794632   0.37304524   -7.3664562    12.648342 
    3860    4.2134366   -7.8001986   0.37361198   -7.3637894  -0.56839412 
    3870    4.8499845   -7.7989584   0.36540175   -7.3612723   -20.601613 
    3880    5.2879715   -7.7917597   0.35356734   -7.3593802   -48.556615 
    3890    5.3121018   -7.7796777    0.3418862   -7.3586196     -78.9991 
    3900     4.995183   -7.7635347   0.33004147   -7.3590448    -98.57205 
    3910    4.6262605   -7.7557605   0.32638629   -7.3604242   -118.14335 
    3920    4.4312789   -7.7532559   0.32486823   -7.3623436   -118.38894 
    3930    4.4551424   -7.7647751   0.33336523   -7.3650102   -118.34187 
    3940    4.6088765   -7.7747564    0.3377611   -7.3683043   -99.784757 
    3950    4.6981227   -7.7904482   0.34786544   -7.3725617   -79.472683 
    3960    4.5097873   -7.7988124   0.35367418   -7.3779242   -51.788912 
    3970    3.9646375   -7.8035598   0.36142948   -7.3830411   -23.168817 
    3980    3.2669223   -7.8025592   0.36628681    -7.387582   -4.4928345 
    3990    2.7488949    -7.801696   0.36907604   -7.3916503    9.6354302 
    4000    2.5519134   -7.8071425    0.3739327   -7.3951759   0.91444218 
    4010    2.5592347   -7.8062533   0.36966498   -7.3984454   -10.027595 
    4020    2.5464034   -7.8070343   0.36743269   -7.4016499   -37.093037 
    4030    2.3728943   -7.7938265   0.35387894   -7.4045818    -58.64976 
    4040    2.0255307   -7.7860602   0.34893941   -7.4069322   -82.180791 
    4050    1.6114085   -7.7692736    0.3364658   -7.4087913   -97.837945 
    4060    1.3080412   -7.7654553   0.33582633   -7.4101338   -104.07936 
    4070     1.224236   -7.7624604   0.33318415   -7.4110301   -106.30927 
    4080    1.3292617   -7.7736407   0.34211119   -7.4117181   -94.043188 
    4090    1.4800687   -7.7832586   0.34896382   -7.4122358   -82.432808 
    4100    1.5338971   -7.7944632   0.35888675   -7.4127152   -57.721084 
    4110    1.4305555   -7.8004486   0.36629231   -7.4128352   -38.533206 
    4120    1.1953177   -7.8011513   0.37060593   -7.4127303   -16.696858 
    4130   0.95425281   -7.7995059   0.37280496   -7.4124787   -4.2344027 
    4140   0.87253379   -7.7942804   0.36920217    -7.412074   -2.6801573 
    4150    1.0195688   -7.7953012   0.36865615   -7.4114493   -8.6466338 
    4160    1.2762237   -7.7928297   0.36334841   -7.4104604   -30.777956 
    4170    1.4342844   -7.7906458   0.36040468   -7.4088644   -48.309252 
    4180    1.4020364   -7.7794978   0.35141992   -7.4071819   -76.291477 
    4190    1.2313495   -7.7702342   0.34634094   -7.4055412   -90.420945 
    4200    1.0432517   -7.7580711   0.33870046   -7.4038219   -106.72658 
    4210      0.95997   -7.7522207   0.33581443   -7.4020989   -108.43558 
    4220    1.0725479   -7.7509908   0.33478678   -7.4002187   -103.18574 
    4230    1.3914158   -7.7607884   0.34232241   -7.3977283   -91.469493 
    4240    1.7618412   -7.7738674   0.35333931   -7.3942695   -64.603117 
    4250    1.9629049   -7.7870746   0.36783629    -7.389983   -43.770302 
    4260    1.9127543   -7.7922211   0.37831405   -7.3853992   -6.6492343 
    4270    1.7697538   -7.7943157   0.38696956   -7.3809696    7.0166791 
    4280    1.8151246   -7.7879766   0.38436875   -7.3765551    26.451042 
    4290    2.2125286   -7.7825402    0.3780265   -7.3715381    13.778606 
    4300    2.9217818   -7.7719462   0.36344281    -7.364957    -2.772106 
    4310    3.6538774   -7.7668132    0.3557783   -7.3565773   -36.759561 
    4320    4.0574415   -7.7515216    0.3440067   -7.3470426   -74.826763 
    4330    4.0753827   -7.7375703   0.33914289   -7.3376877   -99.817846 
    4340    4.0348172   -7.7196454    0.3305032   -7.3290071   -131.92344 
    4350    4.3730845   -7.7155472   0.32968545   -7.3206851   -130.99212 
    4360    5.2101259   -7.7167374   0.32717938    -7.311906   -142.39662 
    4370    6.3368451   -7.7267073   0.32955492   -7.3027077   -113.78623 
    4380    7.3990832   -7.7435522   0.33935947   -7.2939164   -96.405231 
    4390     7.964524   -7.7599838   0.35361303   -7.2876671    -51.30502 
    4400    7.8027428   -7.7781341   0.37694601   -7.2848957    -12.97748 
    4410    7.1276021   -7.7805754   0.38839627   -7.2859489    20.953377 
    4420    6.5947317   -7.7914918   0.40346348   -7.2897401    46.448619 
    4430    6.6133119   -7.7878844   0.39336859   -7.2959507    33.234716 
    4440    6.7898031   -7.7907093    0.3848806   -7.3046331    22.357847 
    4450    6.4894967   -7.7697825   0.35719483   -7.3158679    -25.03796 
    4460    5.5431316   -7.7576291   0.34716241   -7.3278516   -50.392529 
    4470      4.34786   -7.7350392   0.33144241    -7.338796   -90.955098 
    4480    3.3783013   -7.7298225    0.3317697   -7.3477024   -106.54004 
    4490    2.8891713     -7.72541   0.32744307   -7.3549066   -117.73302 
    4500    2.8535442   -7.7384664   0.33475646   -7.3611806   -118.08505 
    4510    2.9791558   -7.7514093   0.33927151   -7.3677363   -100.88547 
    4520    2.9386675   -7.7641547   0.34603623   -7.3743204   -88.706333 
    4530     2.569073   -7.7713153   0.35277262   -7.3802531   -54.371999 
    4540     1.986776    -7.774737   0.36007323   -7.3850528   -39.241837 
    4550    1.4776629   -7.7810552   0.37058194   -7.3884501   -10.754248 
    4560    1.2669292    -7.783523   0.37375366   -7.3908869   -7.0619955 
    4570    1.4043531   -7.7917211   0.37759619   -7.3931943   -3.1784248 
    4580    1.7185871   -7.7922516   0.37116666    -7.395471    -16.17715 
    4590    1.9375382   -7.7924454   0.36565028    -7.397918   -35.682878 
    4600    1.8772394   -7.7797658   0.35151412   -7.4002732   -52.518574 
    4610    1.5638916   -7.7686557   0.34316212   -7.4021853   -77.076485 
    4620    1.2174142   -7.7563193   0.33466636   -7.4035085   -84.037157 
    4630    1.0586436    -7.754051    0.3338225   -7.4044505    -98.97874 
    4640     1.179176    -7.756894   0.33422959   -7.4050899   -91.539589 
    4650    1.4990649    -7.768578   0.34060038   -7.4056354   -90.243306 
    4660     1.824057   -7.7812371   0.34796826    -7.406083   -72.488776 
    4670    1.9710498   -7.7920097   0.35626837   -7.4063647   -57.242326 
    4680       1.8621   -7.7953293    0.3611228   -7.4064536   -38.841073 
    4690    1.6062722   -7.7964245   0.36613958    -7.406345   -21.501043 
    4700    1.4292727   -7.7949931   0.36765428   -7.4060368   -17.299563 
    4710    1.5095394   -7.7968675   0.36892108   -7.4054482   -12.646593 
    4720    1.8450801   -7.7959793   0.36386893   -7.4046112   -27.683729 
    4730    2.2349138   -7.7975155   0.36090808   -7.4032982   -38.087719 
    4740    2.4533787   -7.7901954   0.35196982   -7.4016603    -61.72572 
    4750    2.3991254    -7.781139   0.34555381   -7.3998285   -76.272617 
    4760    2.1639375   -7.7648084    0.3345701   -7.3979869   -90.716314 
    4770    1.9677161   -7.7558735   0.33027004   -7.3962765   -98.197778 
    4780    2.0137678   -7.7522703   0.32803748   -7.3942195   -94.721837 
    4790    2.3808538   -7.7583028   0.33094785   -7.3918706   -90.043156 
    4800    2.9272492   -7.7719275   0.33955559    -7.388744   -69.116318 
    4810    3.3622886   -7.7839684   0.34870544   -7.3851512   -53.913979 
    4820    3.4515505   -7.7971913   0.36438065   -7.3813686   -27.383247 
    4830    3.2079088   -7.7928622   0.36722672   -7.3778246   -12.507224 
    4840     2.911729   -7.7931131   0.37492191   -7.3747946   -0.8741204 
    4850    2.8667833   -7.7801599   0.36570775   -7.3717255   -2.4906514 
    4860    3.1943193   -7.7817282   0.36550955   -7.3686104   -18.764839 
    4870    3.7403558   -7.7705046   0.34965258   -7.3651055   -36.211765 
    4880    4.1713272   -7.7695916   0.34604047   -7.3613814   -67.150683 
    4890    4.2261387     -7.75555   0.33454807   -7.3580153   -84.087281 
    4900    3.8925449   -7.7449581   0.33178779   -7.3551556   -107.39525 
    4910    3.4479759   -7.7288889   0.32458683   -7.3529132    -110.0242 
    4920    3.2173713   -7.7200631   0.32104817   -7.3510631   -111.30904 
    4930    3.3336074   -7.7225188    0.3235194   -7.3493152   -97.561721 
    4940    3.6879472   -7.7282245   0.32567955   -7.3475796   -74.827965 
    4950    3.9907214   -7.7442222   0.33886428     -7.34588   -49.650802 
    4960    3.9711864     -7.75165    0.3479182   -7.3445451   -14.638279 
    4970    3.5512738   -7.7642616   0.36769693   -7.3436363    3.8135237 
    4980    2.9951955    -7.760387   0.37269956   -7.3430469     23.66262 
    4990    2.7081582   -7.7595019   0.37659426   -7.3425451    15.394631 
    5000    2.8051735   -7.7490406   0.36522873   -7.3420035    1.9995252 
    5010    3.0403838    -7.740254   0.35357056   -7.3413694   -29.086493 
    5020    3.0776406   -7.7239226   0.33733525    -7.340718   -60.902059 
    5030    2.8295917   -7.7066137   0.32422606   -7.3402152   -87.425426 
    5040      2.41627   -7.6937699   0.31831497   -7.3394428   -113.27939 
    5050    2.0184565   -7.6852799   0.31636169   -7.3388351   -118.92074 
    5060    1.8439706   -7.6840714   0.31846889   -7.3381199   -124.97679 
    5070    2.0285243   -7.6886237   0.32119742   -7.3371931    -106.4105 
    5080    2.4959632   -7.6992343   0.32614642   -7.3358879   -87.790116 
    5090    2.9051945   -7.7134824   0.33590491   -7.3342783   -52.243181 
    5100    2.9104269   -7.7175913    0.3418254   -7.3323887   -14.843972 
    5110    2.5574008   -7.7250027   0.35628065   -7.3306064    16.851102 
    5120    2.2297044   -7.7254929   0.36329522    -7.328966    43.297023 
    5130    2.3180658   -7.7393043   0.37751363   -7.3272421    36.653831 
    5140    2.9091106   -7.7387553   0.37027465   -7.3251231    26.592468 
    5150    3.7290754    -7.741333   0.36339296   -7.3223617    -17.15037 
    5160    4.2818414   -7.7249756   0.34186759   -7.3192912   -49.379865 
    5170    4.2404306    -7.705547   0.32572701   -7.3166204   -94.170841 
    5180    3.8198639    -7.682008   0.31047717   -7.3145994   -120.36493 
    5190    3.5162057   -7.6664653   0.30101605   -7.3130436   -137.70568 
    5200    3.6723232   -7.6737975   0.30734525   -7.3117197   -146.63615 
    5210    4.2803302   -7.6833225   0.30903489   -7.3104933   -129.24449 
    5220     5.050618   -7.7133679   0.32838078   -7.3097125   -116.49457 
    5230     5.612013   -7.7250462   0.33146254    -7.309942   -68.487437 
    5240    5.5281692   -7.7479978   0.35399465   -7.3116111   -38.066565 
    5250     4.643563    -7.736801   0.35319095   -7.3144022    17.046885 
    5260    3.4954669   -7.7362616   0.36702391   -7.3171411    40.833185 
    5270    2.9437655    -7.727749   0.36444809   -7.3194268    56.980593 
    5280    3.2359058   -7.7421278   0.37200138   -7.3218983    41.286434 
    5290    3.7754415   -7.7461663   0.36518675   -7.3247102    4.9850231 
    5300    3.9051871   -7.7401552   0.35384786   -7.3281043   -29.250684 
    5310    3.3930543   -7.7223762   0.34014476   -7.3316612   -78.891633 
    5320    2.4301808   -7.6934529   0.32259777   -7.3346356   -99.226634 
    5330    1.4532502   -7.6728734   0.31477348   -7.3364406   -130.91693 
    5340   0.88778238   -7.6546272   0.30406495   -7.3373307   -127.29143 
    5350   0.95055634   -7.6641491   0.31129435   -7.3386876   -130.21071 
    5360    1.4622485    -7.678928   0.31799807   -7.3391366   -107.52032 
    5370     1.972759   -7.7040863    0.3359715   -7.3387127   -79.984095 
    5380    2.0955784   -7.7189977   0.34877427   -7.3389908   -45.966172 
    5390     1.700644   -7.7273698   0.36295648   -7.3390669   -1.1271904 
    5400    0.9973434   -7.7237598    0.3699589   -7.3389364    22.182464 
    5410   0.44846882    -7.714209    0.3686524   -7.3388726    51.146435 
    5420   0.53164023   -7.7112751    0.3647163   -7.3386352    36.549679 
    5430    1.2899159   -7.7148667   0.35769473    -7.337947    23.364335 
    5440    2.1785165    -7.720598    0.3517797   -7.3363496   -22.656944 
    5450    2.6282933    -7.715309   0.34230253   -7.3338342   -58.111805 
    5460     2.522157    -7.698666   0.33002821   -7.3310475    -95.20095 
    5470    2.1671697   -7.6836042   0.32297691   -7.3283277    -125.5678 
    5480    1.9447449   -7.6660628   0.31117142   -7.3259068   -132.55528 
    5490     2.153521   -7.6674243   0.31199266   -7.3233354     -145.498 
    5500     2.987807   -7.6727581   0.30829809   -7.3199296   -118.87164 
    5510    4.3120636   -7.7066106   0.32727474   -7.3150686   -108.61217 
    5520    5.5947165   -7.7313636   0.33888237   -7.3090973   -56.324672 
    5530    6.2097549   -7.7614138   0.36544974   -7.3034136   -23.904962 
    5540    6.0302037   -7.7668171     0.377533   -7.2994097    27.202361 
    5550    5.6617102   -7.7710857   0.38919693   -7.2975063    52.242383 
    5560    5.7498344     -7.76644   0.38359418     -7.29715    55.661139 
    5570    6.3757855   -7.7601633   0.36647651   -7.2986617    43.493803 
    5580    7.0170637   -7.7615434   0.35455248   -7.3024082   -6.2646255 
    5590    7.0758573   -7.7507169   0.33595581   -7.3093022   -37.051047 
    5600    6.4027527   -7.7485051   0.33450661   -7.3185715     -93.1012 
    5610    5.3837319   -7.7277158   0.31879875   -7.3286776   -107.97409 
    5620    4.5393191   -7.7306038   0.32480288   -7.3381467   -136.77996 
    5630    4.0740422   -7.7247478   0.31692557   -7.3471025   -131.59026 
    5640    3.8786132   -7.7399144   0.32655683   -7.3555505   -127.14089 
    5650    3.7440442   -7.7449278   0.32524236    -7.363884   -106.90401 
    5660    3.4875248   -7.7628269   0.33889301   -7.3719557   -76.080864 
    5670     3.061429   -7.7741056   0.34919835   -7.3792795    -52.13168 
    5680    2.5234575   -7.7856937   0.36266997    -7.385414   -15.377298 
    5690    2.0576492   -7.7923236   0.37141628     -7.39024   -4.6042281 
    5700    1.8398209    -7.794473   0.37298521    -7.394067    11.329802 
    5710    1.8465308   -7.7956198   0.37064381   -7.3974552     -2.70537 
    5720    1.8852077   -7.7866152   0.35802503    -7.400493   -14.548912 
    5730    1.7662694   -7.7779093   0.34816058   -7.4034242   -40.177364 
    5740    1.4941949    -7.764859   0.33677799   -7.4058115   -63.739303 
    5750    1.2081152    -7.757991    0.3324403   -7.4075449   -80.979105 
    5760    1.0530597   -7.7533066   0.32880636   -7.4088053   -98.405468 
    5770    1.0917739   -7.7563705   0.33031989   -7.4097787   -97.690136 
    5780    1.2634742   -7.7640378   0.33456789    -7.410639   -101.26036 
    5790     1.440077   -7.7726217   0.33988914   -7.4112696   -84.832967 
    5800    1.4853998   -7.7795885   0.34550383   -7.4119462   -73.811558 
    5810    1.3587918   -7.7837718   0.35120906   -7.4123113   -51.055874 
    5820    1.1576186     -7.78754    0.3579759   -7.4123109   -34.158377 
    5830    1.0473431   -7.7922218   0.36439248   -7.4122197   -20.705175 
    5840    1.1615723   -7.7951024   0.36592886   -7.4118614   -11.541677 
    5850     1.484586   -7.8008889   0.36751313   -7.4112494   -18.759924 
    5860    1.8570103   -7.7992178   0.36118809   -7.4103527   -24.888502 
    5870    2.0770876     -7.79654   0.35667588   -7.4089071   -48.031875 
    5880    2.0362261   -7.7802073   0.34263908   -7.4072202   -60.727183 
    5890    1.8258286   -7.7702852   0.33738564   -7.4056873   -82.366105 
    5900    1.6712373   -7.7570707   0.32825195   -7.4039105   -90.665081 
    5910     1.795929   -7.7594309   0.33071149   -7.4019528   -97.350251 
    5920    2.2586987   -7.7636311   0.33078073   -7.3991866   -94.947089 
    5930    2.8929899   -7.7798813   0.34100447   -7.3957595   -82.675571 
    5940    3.4125788   -7.7927792   0.35035798     -7.39156   -70.402196 
    5950    3.5678853   -7.8005054   0.36029734   -7.3870321   -45.169983 
    5960    3.3636755   -7.8012534   0.36834581   -7.3827752   -30.488457 
    5970    3.0710981   -7.7950818    0.3703171   -7.3789929   -10.402433 
    5980    3.0633167     -7.79609   0.37485771   -7.3755764   -8.7304008 
    5990    3.5470751   -7.7921496   0.36742958   -7.3718542   -11.134527 
    6000    4.3398416   -7.7990775   0.36692238   -7.3674739   -26.589396 
    6010     4.989113   -7.7924238   0.35502432   -7.3630415   -49.257724 
    6020    5.0869403   -7.7881644   0.35310163   -7.3592467   -69.093902 
    6030    4.6267336   -7.7639272   0.33816093   -7.3568092   -92.100137 
    6040    3.9818929    -7.749179   0.33466424   -7.3551684   -99.614704 
    6050    3.5960352   -7.7338324   0.32611489    -7.354122   -107.08037 
    6060     3.718016   -7.7390104   0.33024948   -7.3533474   -98.075592 
    6070      4.24568   -7.7493459   0.33319533   -7.3528727   -84.747009 
    6080    4.7919224   -7.7704109   0.34614284    -7.352849   -63.852104 
    6090    4.8959785   -7.7875364   0.36101031   -7.3535562   -37.114101 
    6100    4.3802294   -7.7964636   0.37579502   -7.3553854   -18.920571 
    6110    3.5541717   -7.7942198   0.38403866   -7.3572095     1.903583 
    6120    2.9187462   -7.7862026   0.38377335   -7.3589281  -0.21738662 
    6130    2.7519395   -7.7807834    0.3793133    -7.360455   -3.9376045 
    6140    2.9528212   -7.7741838   0.36818894   -7.3619859   -27.188152 
    6150    3.2067061   -7.7694303   0.35801382   -7.3636236    -48.36907 
    6160    3.2277175   -7.7617482   0.34823044   -7.3654117   -72.334071 
    6170     2.881296   -7.7546672   0.34464224    -7.367082   -93.421556 
    6180    2.3017359   -7.7433808   0.34047298   -7.3686026   -100.80833 
    6190    1.7961971   -7.7353438   0.33907957   -7.3694936   -108.46251 
    6200    1.6129417   -7.7321786   0.33799193   -7.3701473   -94.467909 
    6210    1.7521807   -7.7389412   0.34216165   -7.3706649   -85.387662 
    6220     1.989356   -7.7471738    0.3466191   -7.3709052   -56.069606 
    6230    2.1026724   -7.7591962    0.3568861   -7.3709717   -34.564418 
    6240    1.9742486   -7.7675316   0.36738151   -7.3707258   -7.7367432 
    6250    1.6567026   -7.7775536    0.3823177   -7.3705443    7.6816636 
    6260    1.3627936   -7.7769344   0.38640163   -7.3702216    9.3446216 
    6270    1.3144288   -7.7770402   0.38783149   -7.3696184    4.0725818 
    6280    1.5399576     -7.76677   0.37508248   -7.3687359   -23.486296 
    6290    1.8084129   -7.7596729   0.36528197   -7.3674382   -43.885663 
    6300    1.9147118   -7.7406666   0.34633657    -7.365793   -79.099156 
    6310    1.8578429   -7.7305219    0.3389348   -7.3638977    -95.82379 
    6320    1.7610807     -7.71877   0.33072735   -7.3617955   -116.10239 
    6330    1.7484369   -7.7208027    0.3350767   -7.3596672    -119.5098 
    6340    1.9189884   -7.7220098   0.33616501   -7.3572441   -112.61868 
    6350    2.3677542   -7.7327738   0.34333815   -7.3541465   -99.023561 
    6360    3.0040326   -7.7456983   0.35075046   -7.3501756   -63.861661 
    6370    3.4693202   -7.7552968   0.35818681    -7.345403   -37.106775 
    6380    3.5072321   -7.7614063   0.36869765   -7.3404367    11.595662 
    6390    3.3336406    -7.760064   0.37454958   -7.3358296    30.696482 
    6400    3.4844653   -7.7741414   0.39064924   -7.3315595    51.278681 
    6410    4.1623646   -7.7786338   0.38977533   -7.3268224    33.639478 
    6420    5.1009766   -7.7900311   0.39232435   -7.3216815    6.1260104 
    6430    5.8312159   -7.7736561   0.36998676   -7.3167606    -33.46392 
    6440    5.9378959   -7.7606656   0.35922195   -7.3129449   -82.596767 
    6450    5.4072774   -7.7241057   0.33234663   -7.3111687   -108.08286 
    6460    4.6735339     -7.70343    0.3230781   -7.3106973   -145.41379 
    6470    4.3343165   -7.6878337    0.3121647   -7.3110702   -141.34593 
    6480    4.6276281   -7.7011921    0.3201544   -7.3120673   -153.16758 
    6490    5.2759082   -7.7218589   0.32907112   -7.3141554   -123.10608 
    6500    5.8278622   -7.7474136   0.34289471   -7.3176601   -102.32828 
    6510    5.8761741   -7.7683342   0.35769007   -7.3230654   -56.592976 
    6520    5.2253265   -7.7756178   0.36803959   -7.3296996    -13.28526 
    6530    4.0809514   -7.7743827   0.37722549   -7.3363345    21.286391 
    6540    3.1381016   -7.7651666   0.37672487   -7.3416713    51.912794 
    6550    3.0357909   -7.7717243   0.38026348   -7.3462153    39.569234 
    6560    3.5726022   -7.7814943   0.37708488   -7.3511631    28.569133 
    6570     4.013931   -7.7896132   0.37268065   -7.3571087   -20.608611 
    6580    3.8880108   -7.7823518    0.3607598   -7.3636449   -48.943823 
    6590    3.2675934   -7.7667106    0.3482408   -7.3697695   -92.159091 
    6600    2.4903505   -7.7478873   0.33608161   -7.3746894    -112.3684 
    6610    1.8934719   -7.7321703   0.32571966   -7.3782302   -127.29939 
    6620    1.7325631   -7.7289237    0.3221886   -7.3809129   -131.28513 
    6630    2.0210987   -7.7399726    0.3263256   -7.3835245   -116.70769 
    6640    2.4956838   -7.7599912   0.33639036   -7.3864051   -104.95152 
    6650    2.7842676   -7.7813063   0.35038462   -7.3894248   -68.382954 
    6660    2.6628105   -7.7930735    0.3606711   -7.3927157   -45.848668 
    6670    2.2146878   -7.8019798   0.37344079   -7.3955312    -8.275742 
    6680    1.7078239   -7.7965678   0.37349527    -7.397619    6.8026194 
    6690    1.4455395   -7.7960011   0.37537939   -7.3990773    18.227881 
    6700    1.5788569   -7.7885917   0.36479427    -7.400266    9.6784504 
    6710    1.9613718   -7.7946064    0.3639704   -7.4014036   -13.896851 
    6720    2.2591352   -7.7894587   0.35320648   -7.4025819   -37.410434 
    6730    2.2320855   -7.7870549   0.35013912   -7.4036486   -72.878641 
    6740    1.9351405   -7.7735023   0.34016325   -7.4044976   -88.873104 
    6750    1.5879587   -7.7648897   0.33621179   -7.4050109   -113.42465 
    6760    1.3810066   -7.7569327   0.33128295   -7.4050672   -112.91179 
    6770    1.4113017   -7.7541279   0.32801719   -7.4050766   -115.76786 
    6780    1.6637167   -7.7631272   0.33349929   -7.4048318   -99.900649 
    6790    2.0157073   -7.7725813   0.33824597   -7.4042931    -80.56196 
    6800    2.2491571   -7.7917411   0.35474535   -7.4034742   -56.351317 
    6810     2.206109   -7.7958016   0.36049776   -7.4024239   -24.294472 
    6820    1.9615314    -7.806255   0.37554827    -7.401472   -7.4998355 
    6830    1.7596977    -7.799707    0.3731896   -7.4002907      13.6116 
    6840    1.8125192   -7.8002552    0.3743038   -7.3989375     5.323433 
    6850    2.1095762   -7.7885175   0.35984448   -7.3972318  -0.64116342 
    6860    2.4709879    -7.783838   0.35211524    -7.394895   -31.113922 
    6870    2.7003112   -7.7738542   0.34135489   -7.3922537   -55.770644 
    6880    2.6963934   -7.7644582   0.33491716   -7.3893539   -84.626667 
    6890    2.5430019   -7.7554917   0.33086522   -7.3867254   -106.72259 
    6900    2.4261868   -7.7478306   0.32769029   -7.3839803   -115.48809 
    6910    2.5014253   -7.7486133   0.33017721   -7.3811547   -123.31517 
    6920     2.771122   -7.7487696   0.32933543   -7.3781332    -107.9499 
    6930    3.1013001    -7.756418   0.33550368   -7.3746924   -96.788576 
    6940    3.3449973   -7.7630365    0.3423593   -7.3708232   -63.445607 
    6950    3.3805719   -7.7720402   0.35472946   -7.3669265   -37.858264 
    6960    3.2224157   -7.7773261   0.36611571   -7.3631834   -4.7341151 
    6970    3.0429191   -7.7790674   0.37390878   -7.3598068    15.750986 
    6980    3.0742422   -7.7817224    0.3793455   -7.3565582    20.004411 
    6990    3.3890486   -7.7749737    0.3712771   -7.3531861    14.027763 
    7000    3.7220625   -7.7642487   0.35919368   -7.3495813   -15.619353 
    7010    3.7623184   -7.7421364   0.34001792   -7.3460447    -39.44502 
    7020    3.4700534    -7.722635   0.32798872   -7.3429284   -77.437226 
    7030    3.1224111   -7.7064403    0.3197586   -7.3401451   -97.403873 
    7040    3.0364713   -7.6974774    0.3146184   -7.3376032   -117.15061 
    7050    3.3060091   -7.7053709   0.32088333   -7.3352147   -121.68058 
    7060     3.812114   -7.7127369   0.32324999    -7.332671   -113.89098 
    7070     4.246582   -7.7330674   0.33973126   -7.3300449   -101.65785 
    7080    4.3308599   -7.7319761   0.33973099   -7.3276977   -68.256307 
    7090    4.0137546   -7.7430325     0.357368   -7.3258433   -45.066457 
    7100    3.5412414   -7.7347234   0.35727724   -7.3246673   -5.8617641 
    7110     3.393049   -7.7465019   0.37214236   -7.3237894    9.0078252 
    7120    3.8537677   -7.7491908   0.36869433   -7.3230597     23.41442 
    7130    4.7542429   -7.7662575   0.37282602   -7.3225741    11.489967 
    7140    5.5035171   -7.7697899    0.3649261   -7.3228391   -11.360937 
    7150     5.577997   -7.7593572   0.35159677   -7.3246257     -37.9664 
    7160    4.9888413   -7.7405479   0.33871397   -7.3274799   -72.807731 
    7170    4.1749118   -7.7137768   0.32059548   -7.3309582   -88.238476 
    7180    3.6935352   -7.7092881   0.31992345    -7.334316    -110.9138 
    7190    3.7980262   -7.7053859   0.31091092    -7.337869   -106.31499 
    7200    4.3207402    -7.730562   0.32406373   -7.3421017   -106.85805 
    7210    4.7736674    -7.747418    0.3288063   -7.3474648   -87.117572 
    7220    4.6751374    -7.774162   0.35060804   -7.3538755   -67.670193 
    7230    3.9754742    -7.777094   0.35746772   -7.3603756   -44.287177 
    7240    3.0538214   -7.7803879   0.36910903   -7.3657645   -19.274395 
    7250    2.3952796   -7.7751159   0.36946083   -7.3699557    -11.27444 
    7260    2.2622776   -7.7752607   0.36817787   -7.3733657   -1.8140751 
    7270    2.5679459   -7.7772104   0.36236162    -7.376576   -16.780487 
    7280    2.9751562   -7.7796463   0.35495605   -7.3803484    -27.34715 
    7290      3.06614   -7.7816879   0.35143868   -7.3845514    -53.14173 
    7300    2.6857404   -7.7730356   0.34454263   -7.3884646   -70.951529 
    7310     2.046957   -7.7610391   0.33896398   -7.3915672   -86.075878 
    7320    1.5246468     -7.74904   0.33266002   -7.3936566   -97.168571 
    7330    1.3639998   -7.7451849   0.32973659   -7.3951192   -93.086257 
    7340     1.543682   -7.7502851   0.33079669   -7.3964813   -92.818306 
    7350    1.8858316   -7.7588194   0.33297453   -7.3977384   -71.945528 
    7360    2.1423886   -7.7746378    0.3437217   -7.3989859   -61.930984 
    7370    2.0923226   -7.7854209   0.35415957   -7.4000773   -37.294928 
    7380    1.7203351   -7.7940016   0.36754186   -7.4008198   -26.341408 
    7390    1.2706723   -7.7920645   0.37195156   -7.4011748   -14.471244 
    7400    1.0563424    -7.789418   0.37233381   -7.4013405   -13.368952 
    7410     1.172507   -7.7858035   0.36692682   -7.4014015   -25.074571 
    7420    1.4805913   -7.7793186   0.35613419   -7.4011176   -34.609697 
    7430    1.7699802   -7.7760827   0.34908112   -7.4006217   -61.019273 
    7440    1.8602937   -7.7664309   0.33899225   -7.3997127   -70.727371 
    7450    1.6813243   -7.7643765    0.3406981   -7.3986198   -94.608323 
    7460    1.3254061   -7.7508864   0.33362175   -7.3975108   -94.612381 
    7470    1.0489163   -7.7507726   0.33869288   -7.3964466    -101.3349 
    7480    1.0888331   -7.7453919   0.33386824   -7.3952956   -89.418976 
    7490    1.4277367   -7.7570788   0.34220343   -7.3935963   -74.320989 
    7500    1.8489271   -7.7605816    0.3417626   -7.3912625   -54.515288 
    7510    2.1277253   -7.7731065   0.35318925   -7.3882056   -24.118939 
    7520    2.1715844   -7.7802401   0.36310003   -7.3847747   -11.022362 
    7530    2.0130731   -7.7879987   0.37643674    -7.381559    11.855757 
    7540    1.8505641   -7.7891502   0.38329743   -7.3782719    1.7411577 
    7550    1.9871334   -7.7826725   0.37810076   -7.3749554  -0.99551916 
    7560    2.4870475   -7.7790425   0.37110777   -7.3708676   -33.464801 
    7570    3.0997054   -7.7625498   0.35066636   -7.3656853   -58.128277 
    7580    3.5236269   -7.7511217   0.33891036    -7.359695   -88.446232 
    7590    3.7207897   -7.7302319   0.32129888   -7.3534782   -114.65535 
    7600    3.8489833   -7.7274743   0.32295272   -7.3471561   -122.08429 
    7610    4.0241383   -7.7216221   0.32022628   -7.3414199   -135.61032 
    7620    4.3921316    -7.730956   0.32979077   -7.3357046    -113.0874 
    7630    5.1059299   -7.7401581   0.33404791   -7.3300111   -104.12417 
    7640     6.014495   -7.7602028   0.34631544    -7.324247   -58.111459 
    7650    6.5901247   -7.7718364   0.35368275    -7.319934   -27.657436 
    7660    6.4811225   -7.7768168   0.36243858   -7.3177833      17.7118 
    7670     6.106432   -7.7803249    0.3714327   -7.3178816    42.487673 
    7680    6.0306574   -7.7918996   0.38210374   -7.3199146    42.188638 
    7690    6.2282918   -7.8013797   0.38479451   -7.3237584     31.65509 
    7700    6.3241722   -7.8031302   0.37900153   -7.3298729   -14.787964 
    7710    6.0394266   -7.7907957   0.36285013   -7.3379337   -41.806997 
    7720    5.3276951   -7.7737414   0.34734811    -7.346989   -93.971867 
    7730    4.3457855   -7.7483694   0.32795974   -7.3556399   -110.01843 
    7740    3.4786244    -7.733276   0.31822723   -7.3632032   -136.60922 
    7750     3.043954   -7.7273564   0.31287212   -7.3691171   -134.22492 
    7760    3.0228071   -7.7402654   0.32029562   -7.3749177   -128.67784 
    7770     3.146508   -7.7562801   0.32887827   -7.3805061   -111.02077 
    7780    3.1164356   -7.7746167   0.34204247   -7.3861267   -77.295311 
    7790    2.8069057   -7.7876881   0.35449221   -7.3913616   -51.731105 
    7800     2.233907   -7.7917119   0.36275981   -7.3956579   -9.1591303 
    7810    1.5764747   -7.7903676   0.36825992   -7.3986118    6.3676253 
    7820    1.1864434   -7.7841991   0.36586847   -7.4006478    26.863079 
    7830      1.26759   -7.7897819   0.36878511   -7.4021045     12.56167 
    7840    1.6247074   -7.7903993   0.36256703   -7.4036175   -3.5367444 
    7850    1.8392918   -7.7936931   0.36108688   -7.4051933   -35.726811 
    7860    1.6983615   -7.7797219   0.34779461   -7.4066148   -66.782153 
    7870     1.298002   -7.7700269   0.34318612   -7.4074953   -90.859277 
    7880   0.85230447   -7.7501911   0.32946851   -7.4080198   -114.74125 
    7890   0.57592429   -7.7425302   0.32573207   -7.4082145   -117.72906 
    7900   0.60769375   -7.7368976   0.31959538   -7.4082452   -123.13442 
    7910    0.9534505   -7.7488201   0.32652525   -7.4080846   -105.45655 
    7920    1.4216924   -7.7633576   0.33455976   -7.4076088   -89.974023 
    7930    1.6960524   -7.7799433   0.34794841   -7.4067169   -58.095325 
    7940    1.5900715   -7.7900794   0.36081866   -7.4055622   -27.837546 
    7950    1.1879727   -7.7920856   0.37004374   -7.4043362   0.17313307 
    7960   0.80371648   -7.7907833   0.37533509   -7.4034695    22.499604 
    7970   0.77603579   -7.7833781   0.36925966   -7.4025523    21.753167 
    7980    1.2388581   -7.7848233   0.36519839   -7.4011609      13.9998 
    7990    1.9999493   -7.7820907   0.35378586   -7.3984975   -20.313847 
    8000    2.6014642   -7.7827982    0.3493605   -7.3946654   -50.017309 
    8010    2.7113014   -7.7672002   0.33659705   -7.3901938   -88.859764 
    8020    2.3870841   -7.7550518   0.33351966    -7.385955    -115.1104 
    8030    1.9888896   -7.7360401   0.32408469   -7.3823129   -133.70294 
    8040     1.906251   -7.7303842   0.32284023   -7.3791331   -143.23883 
    8050    2.3458023   -7.7287875   0.31847635   -7.3753492   -132.12546 
    8060    3.3044102    -7.745324   0.32572805   -7.3703469   -119.61759 
    8070    4.4754728   -7.7669218   0.33641582   -7.3638033   -80.417134 
    8080    5.2911548   -7.7890847   0.35394059   -7.3562845   -46.422159 
    8090    5.3100332   -7.7996637   0.37109144   -7.3494313    4.8975799 
    8100    4.6962002   -7.8011297   0.38686921   -7.3442681    37.050303 
    8110    4.2565225   -7.7961685   0.39226242   -7.3404667    56.964508 
    8120    4.6068673    -7.790391   0.38449784   -7.3372322    50.858223 
    8130    5.5483149   -7.7839346   0.36676715   -7.3344751    17.172589 
    8140    6.3466501   -7.7773837   0.35007592    -7.332717   -21.236789 
    8150    6.4437621   -7.7634892   0.33450351   -7.3329476   -74.148339 
    8160    5.8678695   -7.7481463   0.32542418   -7.3352671   -105.43356 
    8170    5.0084756   -7.7321145   0.31867167   -7.3387963   -137.59535 
    8180    4.3237954   -7.7280876   0.32105649    -7.342589   -145.57546 
    8190     4.063333   -7.7311673   0.32377509   -7.3468321   -146.10021 
    8200    4.1688587    -7.742593   0.32894256   -7.3515175   -131.67654 
    8210    4.3927858   -7.7590312   0.33679095   -7.3567699   -102.41215 
    8220    4.4067846   -7.7747242    0.3463887   -7.3626566   -72.538803 
    8230    4.0550952   -7.7911865      0.36184   -7.3689091   -29.166652 
    8240    3.4503765   -7.7955795   0.36941316   -7.3747417   -1.8853576 
    8250    2.8958385   -7.8059897   0.38290873   -7.3799213    23.578255 
    8260    2.6623543   -7.8038309    0.3799091    -7.384242    22.333044 
    8270    2.7065683   -7.8092586   0.38053519   -7.3883845    8.7630392 
    8280    2.7728286   -7.7946657   0.36106325   -7.3922761   -16.624384 
    8290    2.6230534   -7.7881986   0.35312387   -7.3959806   -51.109323 
    8300    2.2662599   -7.7683364   0.33537443   -7.3991855    -74.32263 
    8310    1.9090888   -7.7620181   0.33184968   -7.4017152   -102.90685 
    8320    1.7278695   -7.7544152   0.32508685   -7.4035761   -107.96158 
    8330    1.7541246   -7.7618113     0.330428   -7.4052397   -117.79057 
    8340    1.8663321   -7.7722268   0.33764895   -7.4067619   -105.20129 
    8350    1.9195644   -7.7820587   0.34532293   -7.4081265   -93.351649 
    8360    1.8289751   -7.7925356   0.35597939   -7.4092971   -69.849765 
    8370    1.5964781   -7.7935355   0.36017387   -7.4095677   -43.617667 
    8380    1.3357673   -7.8011918   0.37118471   -7.4100987   -24.994916 
    8390    1.2058754   -7.7973704   0.36890685   -7.4104911   -2.8866404 
    8400    1.3153613   -7.8044106   0.37429435   -7.4105121     -5.37156 
    8410    1.5870199   -7.8013861   0.36741214   -7.4103209   -3.8001391 
    8420    1.7720818   -7.8037667   0.36740578   -7.4099497   -29.123534 
    8430    1.6876685   -7.7894447   0.35503268    -7.409259    -44.07674 
    8440    1.3588409   -7.7756664   0.34699395   -7.4084202   -71.339903 
    8450    1.0058329   -7.7588088      0.33623   -7.4075878   -87.640017 
    8460   0.86396836   -7.7497211   0.33018749    -7.406657    -98.61144 
    8470    1.0648356   -7.7495811    0.3280981   -7.4056126   -106.09876 
    8480    1.5715924   -7.7579366   0.33051139   -7.4040022    -94.30886 
    8490    2.1125966   -7.7751814   0.34220035   -7.4014948    -90.17614 
    8500    2.3474126   -7.7876766   0.35447359    -7.398217   -60.190902 
    8510    2.1133119   -7.7937884   0.36748787   -7.3948036   -46.014133 
    8520    1.6334915   -7.7924653   0.37625664    -7.391863   -14.434661 
    8530    1.3677684   -7.7887943   0.37896049   -7.3894485     -4.48088 
    8540    1.6587535   -7.7897484   0.37814238   -7.3868838    2.9682997 
    8550    2.5531756   -7.7877211   0.36641756   -7.3832509   -3.3625171 
    8560    3.6798265   -7.7938034   0.36122769   -7.3777314    -29.05134 
    8570    4.4202764   -7.7856593   0.34882744   -7.3709518   -46.004652 
    8580    4.3179811   -7.7738225    0.3450765   -7.3643906   -85.958889 
    8590    3.5775103   -7.7448186   0.33233849   -7.3591607   -93.081833 
    8600    2.9680141   -7.7266484   0.32716323   -7.3552497   -120.25984 
    8610    3.1234006   -7.7209393   0.32266696    -7.351721    -110.4511 
    8620     4.097829    -7.728812   0.32008247   -7.3476553   -110.18999 
    8630    5.4477989    -7.753937   0.32987406   -7.3428686   -86.870807 
    8640    6.4658414   -7.7721318   0.33741558    -7.338349   -58.302391 
    8650    6.4480555   -7.7987556    0.3672175    -7.335436   -36.067242 
    8660    5.3008854   -7.7875068   0.37362685   -7.3348753    3.3787726 
    8670     3.919229   -7.7882818   0.39450994   -7.3353595    3.5097162 
    8680    3.3732645   -7.7673327   0.38088457   -7.3361729    21.682478 
    8690    3.8594483   -7.7748407   0.38014464   -7.3371747   -11.987369 
    8700    4.7144117   -7.7614422   0.35231117   -7.3388672   -22.225185 
    8710    5.1490507   -7.7596261   0.34121265   -7.3416718    -63.76104 
    8720    4.8307158   -7.7452128   0.32768524   -7.3455303   -84.879988 
    8730     3.804566   -7.7313597   0.32495733   -7.3496989   -106.35958 
    8740    2.5411757   -7.7161577   0.32531916   -7.3529648   -120.77955 
    8750    1.7714888   -7.7023932   0.32096405   -7.3550268   -109.69905 
    8760    1.8696889   -7.7135111   0.32908958   -7.3565556   -110.58593 
    8770    2.5312588   -7.7219579   0.32602554   -7.3582063   -73.656584 
    8780     3.097813   -7.7456586   0.33924406   -7.3602446   -60.206968 
    8790    3.1937868   -7.7525381   0.34228047   -7.3626572   -16.523267 
    8800    2.7981722   -7.7705727   0.36397606   -7.3648926   -3.7927981 
    8810    2.1019514   -7.7707728   0.37266922    -7.366776    15.225122 
    8820    1.5245903   -7.7728369   0.38221041   -7.3679039    10.658341 
    8830    1.4641416   -7.7660962   0.37564699   -7.3686276   -8.1773637 
    8840    1.8908398   -7.7613022   0.36392961   -7.3691914   -28.191841 
    8850    2.3477568   -7.7518341    0.3471412   -7.3697018   -67.515142 
    8860    2.4868969   -7.7363373   0.32913586   -7.3701366    -82.33981 
    8870    2.3304624   -7.7262535   0.32108667   -7.3704335   -114.28268 
    8880    2.0354777   -7.7196719   0.31792376   -7.3714113   -113.73168 
    8890    1.7405212    -7.719179   0.32187922    -7.371359   -122.00891 
    8900    1.6163602   -7.7231781   0.32798546   -7.3711023   -104.42276 
    8910    1.8069456   -7.7320856   0.33455825   -7.3705966    -83.38938 
    8920    2.1817858   -7.7490004   0.34670256   -7.3697804   -55.211491 
    8930    2.3125201   -7.7528295   0.34972675   -7.3686369   -13.243337 
    8940    2.0351008   -7.7591722   0.36145492    -7.367386    9.2954045 
    8950    1.6980638    -7.755818   0.36437681   -7.3661332    39.843252 
    8960    1.6650111   -7.7680792   0.37845659   -7.3648072    27.216497 
    8970     1.898178   -7.7668364   0.37538401   -7.3631618    18.877612 
    8980    2.1590154   -7.7644967   0.37128815   -7.3610305   -23.101538 
    8990    2.2892542     -7.74837   0.35571911   -7.3585317    -56.80861 
    9000    2.1458911    -7.725074   0.33718307   -7.3559085   -95.474102 
    9010    1.7540939   -7.7016669   0.32205076   -7.3534731   -127.06217 
    9020    1.4050622   -7.6758793   0.30355339   -7.3513848   -137.06939 
    9030    1.4904563   -7.6803526   0.30866316   -7.3494756   -151.51332 
    9040    2.1485345   -7.6848464   0.30610461   -7.3467199   -128.81949 
    9050    3.0705211   -7.7186499   0.33025525   -7.3426314   -116.86609 
    9060    3.8240456   -7.7299202   0.33557407   -7.3373524   -63.936249 
    9070    4.0487573   -7.7583525   0.36604071   -7.3319689   -23.726577 
    9080    3.5496292    -7.750169   0.36992856   -7.3273366    36.874124 
    9090    2.7213797    -7.748789   0.38447461   -7.3237548    76.585226 
    9100    2.6753445    -7.739905   0.37912265   -7.3209089    88.860074 
    9110    4.1541723   -7.7599914   0.38061976   -7.3174576    72.628969 
    9120     6.193259   -7.7790808   0.37413682   -7.3126393     13.20025 
    9130    7.1286992   -7.7729334   0.35829471   -7.3083922   -35.950681 
    9140    6.4207612   -7.7481523   0.34559825   -7.3068587   -103.12351 
    9150    4.7999766   -7.7016865   0.32267082   -7.3074766   -136.60035 
    9160    3.3346473   -7.6720804   0.31387538   -7.3085052   -170.76127 
    9170    2.7036028   -7.6456483   0.29582687   -7.3095268   -176.63605 
    9180    3.1792648   -7.6584526   0.30051758   -7.3105511   -169.44722 
    9190    4.4673056   -7.6833355   0.30478962    -7.311965    -149.4282 
    9200      5.65503    -7.725179   0.32620549   -7.3146906   -102.81332 
    9210    5.7117958   -7.7495612   0.34516226     -7.31927   -57.745076 
    9220     4.291795   -7.7587449   0.37015465   -7.3246251    9.2952803 
    9230    2.2275086    -7.747758   0.38597886   -7.3285802    51.835035 
    9240   0.86776378   -7.7323149   0.38909158   -7.3302901    84.959388 
    9250    1.0105348   -7.7255402   0.37947296   -7.3310061    78.103227 
    9260    2.3333791    -7.734473   0.36746997   -7.3322263    41.232935 
    9270     3.586451   -7.7404744   0.35292408   -7.3340976   -7.7533917 
    9280    3.7425622   -7.7334798   0.34119713   -7.3365033   -69.706759 
    9290    2.7649299   -7.7046213   0.32448376   -7.3389289   -105.89262 
    9300    1.4115199   -7.6805178    0.3190828   -7.3403977   -146.71958 
    9310   0.50787482   -7.6566695   0.30818739   -7.3409128   -153.70148 
    9320     0.471522   -7.6581702   0.31009513   -7.3410474   -161.14536 
    9330    1.3164497    -7.667636   0.30691273   -7.3411029   -141.52762 
    9340    2.6538512   -7.7029492   0.32245702   -7.3409391    -113.4111 
    9350    3.7542463   -7.7320588   0.33566717   -7.3404382   -73.395254 
    9360    3.9137875   -7.7570828   0.35853415   -7.3402174   -17.438082 
    9370    3.0321472    -7.761382   0.37586753   -7.3403232    22.694503 
    9380    1.9343576   -7.7570791   0.38785031    -7.340399    65.875212 
    9390    1.6890421   -7.7556973   0.39034484   -7.3401789    62.888675 
    9400    2.6148133   -7.7522853   0.37352593   -7.3397881    51.532031 
    9410    4.0605098   -7.7610017      0.36143   -7.3390537    2.1381157 
    9420    5.0319566   -7.7513896    0.3378883   -7.3385048   -44.964273 
    9430    5.0630724   -7.7460375   0.33159838   -7.3389789   -92.360475 
    9440    4.3612106   -7.7179506   0.31265557   -7.3402953    -131.4614 
    9450    3.5101402   -7.7105246   0.31619122   -7.3420181   -145.68506 
    9460    3.0390416   -7.6984224   0.30961338    -7.343515   -161.10369 
    9470    3.1484786   -7.7131558   0.32105014   -7.3451806   -141.95503 
    9480    3.7042207   -7.7234819   0.32195336   -7.3463207   -128.65588 
    9490    4.2793696   -7.7507079   0.33796826   -7.3489597   -84.832245 
    9500    4.3958608   -7.7685173   0.35053958   -7.3524615   -47.355533 
    9510    3.8812841   -7.7812498   0.36703436   -7.3563686   -1.3340579 
    9520    3.0511383    -7.783227   0.37771369    -7.360039    34.864305 
    9530     2.507029   -7.7824988   0.38219262   -7.3629413    43.694916 
    9540    2.5165176   -7.7847311    0.3816579   -7.3655669    43.337273 
    9550    2.8127442   -7.7774494   0.36741259   -7.3681155    4.4454338 
    9560    2.9040235    -7.767386   0.35333619   -7.3707681   -21.714318 
    9570    2.5655775   -7.7460958   0.33460673   -7.3732515   -70.836346 
    9580       1.9953   -7.7309417   0.32604267    -7.375161     -93.6472 
    9590    1.5325329   -7.7147938   0.31576046   -7.3761924   -120.29944 
    9600    1.4187151   -7.7146811   0.31665369   -7.3768828   -127.22223 
    9610    1.6478593   -7.7216137   0.31953761   -7.3775164   -122.39097 
    9620    2.0239521   -7.7396222   0.33144118   -7.3780159   -114.08283 
    9630    2.3064902   -7.7532198    0.3404105   -7.3784333   -80.254988 
    9640    2.3134431   -7.7664453   0.35315096   -7.3788147   -60.578638 
    9650    2.0520542   -7.7715294   0.36201274   -7.3789327   -15.106749 
    9660    1.7257062    -7.775932   0.37135361   -7.3788584  -0.31737297 
    9670    1.6490695    -7.774587   0.37143431   -7.3785749    25.744832 
    9680    1.9920035    -7.778968   0.37126892   -7.3780101    16.157951 
    9690    2.5392877   -7.7783855   0.36361866   -7.3769212    2.0358384 
    9700    2.8833947   -7.7752491   0.35673815   -7.3755367   -26.701301 
    9710    2.7868871   -7.7565409   0.34105909   -7.3739459   -63.239155 
    9720     2.418331   -7.7396603   0.33127918   -7.3723382    -83.23243 
    9730    2.1554861   -7.7221862   0.31935292   -7.3707079   -115.49968 
    9740    2.2843943   -7.7199295      0.31705   -7.3688328   -112.99491 
    9750    2.8726384   -7.7238971   0.31478836   -7.3662948     -125.453 
    9760    3.6711963   -7.7423851   0.32475708   -7.3629123   -102.04359 
    9770    4.2207152   -7.7600271   0.33846962   -7.3586518   -89.571385 
    9780    4.1235606   -7.7708951   0.35503487   -7.3544024   -55.068411 
    9790    3.4544451   -7.7715231   0.36923487    -7.350803   -23.235139 
    9800    2.7923943   -7.7650154   0.37547159   -7.3479259  -0.33542434 
    9810    2.7523127   -7.7675513   0.38127188   -7.3452588    23.387213 
    9820    3.5709845   -7.7649634   0.36967699   -7.3420643    10.032387 
    9830    4.9008989   -7.7751984   0.36435637   -7.3377987    6.5253298 
    9840    5.9643319   -7.7687089   0.34648701   -7.3333292   -37.709975 
    9850    6.0107656   -7.7656472     0.346151   -7.3299115   -59.372395 
    9860    5.0019624    -7.730916   0.32806093   -7.3283056   -98.552497 
    9870    3.7655081   -7.7105147   0.32644309   -7.3279503   -114.62544 
    9880    3.2018621   -7.6873563   0.31170126   -7.3279343   -123.65254 
    9890    3.5919074   -7.6974807   0.31594106   -7.3280057   -126.73449 
    9900    4.6185677   -7.7104771   0.31323375   -7.3284079    -102.1157 
    9910    5.6531758   -7.7407559   0.32661204   -7.3298886   -91.215807 
    9920    6.0222823   -7.7666933   0.34348105   -7.3334558   -46.022186 
    9930     5.338122   -7.7839833    0.3649143   -7.3395094   -30.047449 
    9940    4.0307155   -7.7894076   0.38286622   -7.3464674    7.5658644 
    9950    3.1042985   -7.7843426   0.38518909   -7.3528869    9.5739951 
    9960     3.039246   -7.7898394   0.38538275   -7.3591595    9.3771899 
    9970    3.4549887   -7.7850924   0.36735132   -7.3662477   -9.7612517 
    9980    3.7248083    -7.786587   0.35678025    -7.374292   -39.575039 
    9990    3.5741148   -7.7749973   0.33977506   -7.3819534   -59.778508 
   10000    3.0242667   -7.7716058   0.33846671   -7.3880653    -93.12567 
   10010    2.2879767   -7.7585528   0.33246518   -7.3919875   -98.572139 
   10020    1.7561567   -7.7539747   0.33362591    -7.394175   -115.66758 
   10030    1.7456471   -7.7534642   0.33212323   -7.3953237   -103.18686 
   10040    2.2249803    -7.765371   0.33582667   -7.3963831   -98.218065 
   10050    2.7994879   -7.7786792   0.33972889   -7.3972266   -73.573576 
   10060    3.0523865   -7.7892287   0.34572885   -7.3980069   -49.333344 
   10070    2.8570588   -7.7977559   0.35652136   -7.3986527   -26.116051 
   10080    2.3338507   -7.8041382    0.3702276   -7.3991267   -2.4775316 
   10090    1.7626437   -7.8058354   0.38011922   -7.3994457  -0.42252745 
   10100    1.5178116   -7.8060476    0.3838744   -7.3995516    2.7595127 
   10110    1.7785864   -7.8012494   0.37547479   -7.3992665   -21.203804 
   10120    2.2990681   -7.7991105   0.36608874   -7.3987563   -39.538918 
   10130    2.6219911   -7.7832075   0.34605308   -7.3980761   -70.608451 
   10140    2.5463892   -7.7707763   0.33587625   -7.3969486   -91.712129 
   10150    2.2112975   -7.7529964   0.32394405   -7.3960951    -107.8693 
   10160    1.8532067   -7.7503439   0.32762518   -7.3950985   -118.88153 
   10170    1.6639565   -7.7471882   0.32841164   -7.3939769   -110.87631 
   10180    1.7816253   -7.7564416   0.33719496   -7.3926932   -104.11408 
   10190    2.2199981   -7.7698514    0.3457702   -7.3909943   -74.139246 
   10200    2.6814058   -7.7817374   0.35312652   -7.3886471   -50.576747 
   10210    2.7730014   -7.7906606   0.36348294   -7.3858487   -12.698522 
   10220    2.4978387   -7.7846793   0.36448246   -7.3829689     12.14511 
   10230    2.2956207    -7.794607   0.38009459   -7.3802983    25.565336 
   10240    2.5366918   -7.7925821   0.37713461   -7.3776405    23.806249 
   10250    3.1589144   -7.8076194   0.38620256   -7.3743362   -3.9610514 
   10260       3.8804   -7.7955697   0.36691482   -7.3708212   -29.489483 
   10270    4.3726754   -7.7948452   0.36272713   -7.3669475   -75.968616 
   10280    4.3864465   -7.7659452    0.3369547   -7.3636147   -100.37568 
   10290    3.9750238    -7.747128   0.32661077   -7.3612733   -132.10877 
   10300    3.5248068   -7.7246074   0.31251104   -7.3595624   -138.87449 
   10310    3.4905421   -7.7243807   0.31412692   -7.3582306   -140.93942 
   10320     3.970008   -7.7394813   0.32324457   -7.3570676   -128.16813 
   10330    4.6708364   -7.7589875    0.3331856   -7.3561875   -97.174836 
   10340    5.1749221   -7.7880435    0.3548837   -7.3560325   -66.771071 
   10350    5.1313574   -7.7989835   0.36555893   -7.3569466   -15.794833 
   10360    4.4983251    -7.808949   0.38296964    -7.358936    14.326414 
   10370    3.6915062    -7.795313   0.37916649   -7.3611282    48.259727 
   10380     3.357355    -7.796193   0.38297423   -7.3631806    44.223695 
   10390    3.6776584   -7.7956073   0.37525826   -7.3655371    26.316476 
   10400    4.0802117   -7.7998863   0.37054059    -7.368534   -11.492525 
   10410    3.9613231    -7.789702   0.35851641   -7.3721458   -56.386004 
   10420    3.2763477   -7.7710114   0.34638187   -7.3757987   -88.822937 
   10430    2.4244503    -7.751225   0.33631603   -7.3787748   -125.20188 
   10440    1.8147001   -7.7321494    0.3242193   -7.3808837   -132.97836 
   10450    1.6689377   -7.7263539   0.31905941   -7.3824206   -144.46521 
   10460    2.0255757   -7.7328418   0.31870885   -7.3839437   -128.27532 
   10470    2.6701713   -7.7527804   0.32731252   -7.3856715   -111.59053 
   10480    3.1719422   -7.7770032   0.34211205   -7.3876164   -78.513042 
   10490    3.1208859   -7.7918997   0.35557955   -7.3898064   -38.795034 
   10500    2.4910204   -7.8047498   0.37582381   -7.3917997   -6.9418542 
   10510    1.7232835   -7.7990455   0.38017871   -7.3931829     28.78483 
   10520     1.355344   -7.8011183   0.38690608   -7.3940121    30.400073 
   10530    1.6228284    -7.791647   0.37283895   -7.3946213    31.833639 
   10540     2.284466   -7.7987276   0.36945343   -7.3952264   -4.8077466 
   10550    2.8361469   -7.7913275   0.35313865   -7.3959188   -33.040553 
   10560    2.9005043   -7.7866661   0.34682185    -7.396615   -75.171019 
   10570    2.4736648   -7.7705899   0.33626149   -7.3974608   -103.98195 
   10580    1.8939701   -7.7578338   0.33148545   -7.3981205   -123.07466 
   10590    1.5311138   -7.7515671   0.33033413   -7.3984132   -137.71697 
   10600    1.5614837   -7.7464027     0.324337   -7.3987932   -126.03974 
   10610    1.9079383   -7.7599954    0.3324419   -7.3991175   -121.88852 
   10620    2.3101517   -7.7665856   0.33275949   -7.3993955   -85.011406 
   10630    2.4676238   -7.7889756   0.35259149   -7.3996065   -63.207947 
   10640    2.1886284   -7.7892964   0.35693195   -7.3997451   -17.388881 
   10650    1.5866682   -7.8014617    0.3780479    -7.399766    6.7044171 
   10660    1.0813612    -7.795177   0.37951778   -7.3995426    28.279383 
   10670     1.072254   -7.8004586   0.38532849   -7.3991492    29.083117 
   10680    1.5796467   -7.7929181   0.37103777   -7.3983372    7.0379573 
   10690    2.1938407   -7.7882603   0.35878697   -7.3967762    -15.96754 
   10700    2.4721123   -7.7754899   0.34410984   -7.3945355   -63.244504 
   10710    2.2697025   -7.7567119   0.33083563   -7.3920485   -85.626924 
   10720     1.764986   -7.7414726    0.3254049   -7.3897623   -124.32632 
   10730    1.2941166   -7.7269691   0.31980493   -7.3878766   -129.97481 
   10740     1.155913   -7.7299624   0.32651317   -7.3862214   -141.93615 
   10750    1.5152969   -7.7341169   0.32729418   -7.3842387   -129.20274 
   10760    2.2760078   -7.7524192   0.33726886   -7.3812286   -106.75083 
   10770    3.0753258    -7.767194   0.34431497   -7.3770442   -79.135687 
   10780    3.4790642   -7.7822201   0.35808737   -7.3722806   -28.219334 
   10790    3.3212242   -7.7872324   0.36984105   -7.3678916   0.57080356 
   10800    2.9470079   -7.7882654   0.38003961   -7.3643034    47.714754 
   10810    2.9118774   -7.7937163   0.38905668   -7.3612608    43.599675 
   10820    3.4639695   -7.7956224   0.38583295   -7.3581623    43.364338 
   10830    4.2517752   -7.7917415   0.37361578    -7.354757   0.33021366 
   10840    4.6400705   -7.7732572   0.35254001   -7.3515614   -37.996745 
   10850    4.3404994   -7.7460987    0.3322516   -7.3491561   -79.789456 
   10860    3.6280005   -7.7204605   0.31877734   -7.3476113   -120.80308 
   10870    3.1112107   -7.6982958   0.30534405   -7.3465821   -130.70023 
   10880    3.2005591   -7.7040463      0.31067    -7.345675   -154.72694 
   10890    3.8149486   -7.7149979   0.31338022   -7.3447595   -131.32963 
   10900    4.5181347   -7.7479323   0.33657412   -7.3440197    -130.0396 
   10910     4.828416   -7.7585563   0.34271003   -7.3438833   -81.338163 
   10920    4.4948443    -7.776983   0.36541801   -7.3445736   -53.545178 
   10930    3.6072195   -7.7686416   0.36908814   -7.3457913   -4.4181341 
   10940    2.6220465   -7.7669022   0.38087704   -7.3469461    27.293187 
   10950    2.2185596   -7.7570228    0.3761631   -7.3477942    39.688547 
   10960    2.6770637   -7.7630405   0.37463001   -7.3485113    42.214589 
   10970    3.5039068   -7.7723399   0.37057275   -7.3495448    1.6297999 
   10980    3.8467641   -7.7655306   0.35731414   -7.3508841   -20.920702 
   10990    3.4261133   -7.7513616   0.34785881   -7.3524399   -75.171241 
   11000    2.6679624   -7.7197655     0.325958   -7.3540441   -92.036963 
   11010    2.1042971   -7.7091436   0.32249578   -7.3552853   -124.52925 
   11020    2.0324145   -7.6932827   0.30673728   -7.3562542   -124.76041 
   11030    2.4714342   -7.7089874   0.31511317   -7.3570399   -122.98885 
   11040    3.1545221   -7.7223776   0.31721947    -7.358143   -108.80961 
   11050    3.5267445   -7.7548406   0.34255254   -7.3597253   -77.274705 
   11060    3.1775585   -7.7647181   0.35591896   -7.3614406   -54.026627 
   11070    2.3325032   -7.7739882   0.37619683   -7.3630276   -9.7673566 
   11080    1.6663938   -7.7710769   0.38146413   -7.3647767    3.9463709 
   11090    1.6750057   -7.7727076   0.38220641   -7.3655368    25.523503 
   11100    2.3044414   -7.7720629    0.3714069   -7.3663105    11.875875 
   11110    3.1300471   -7.7719038   0.35787762   -7.3673758   -3.7988325 
   11120    3.5874746   -7.7712656    0.3489691   -7.3688286    -35.13883 
   11130    3.2321785    -7.758991   0.34023146    -7.370587   -69.501582 
   11140    2.1822596    -7.739339   0.33463256    -7.372182   -89.849622 
   11150    1.1328132   -7.7172527   0.32727255   -7.3730967   -114.95922 
   11160   0.75169063   -7.7092718   0.32458577   -7.3734828   -111.95319 
   11170    1.1419578    -7.712773   0.32202423    -7.373729   -116.63054 
   11180     1.902716   -7.7254239   0.32316555   -7.3739002   -92.632835 
   11190    2.5591429   -7.7424258   0.33035855   -7.3739257   -74.910113 
   11200    2.7126243   -7.7603077   0.34605603   -7.3738225    -43.55839 
   11210    2.1443106   -7.7689614   0.36357114   -7.3734313   -15.853128 
   11220    1.1493908   -7.7684882   0.37821132   -7.3731463    2.2679797 
   11230    0.4624413   -7.7611036   0.38135738    -7.372854    17.064279 
   11240   0.63176269   -7.7608515    0.3789247   -7.3725109    2.0450614 
   11250    1.4610449   -7.7542511    0.3610601   -7.3714155   -9.3074621 
   11260    2.3397078   -7.7496841    0.3460461   -7.3687669   -46.581506 
   11270    2.8091219   -7.7334336   0.32677786   -7.3647884   -69.702983 
   11280     2.666579   -7.7249419   0.32477906     -7.36042   -103.23142 
   11290     1.962451   -7.7023461   0.31658513   -7.3565125   -119.94679 
   11300    1.1713255    -7.693383   0.32206669   -7.3538588   -127.51238 
   11310    1.1052145   -7.6861012   0.31761923   -7.3520098   -126.07188 
   11320    2.1298464   -7.7084359    0.3273948   -7.3492978   -102.06586 
   11330    3.6467271   -7.7268277   0.32768617   -7.3447905   -78.545068 
   11340     4.669183   -7.7501526   0.34130752   -7.3392553   -29.733695 
   11350    4.6772454   -7.7608195   0.35654082   -7.3345688     3.464946 
   11360    3.8045649    -7.767573     0.379293   -7.3315766    39.246994 
   11370    2.7176263   -7.7657377   0.39532153   -7.3299126    47.564632 
   11380    2.3551554   -7.7576789   0.39376566   -7.3288119    34.462018 
   11390    3.1853408   -7.7614121   0.38639746   -7.3275401    4.7393028 
   11400    4.5023501   -7.7509221   0.35778151   -7.3260374   -46.159314 
   11410     5.189852   -7.7410669   0.33869195   -7.3250251   -81.528749 
   11420    4.8782342   -7.7072865   0.30963438   -7.3249466   -124.48461 
   11430    3.9895927   -7.6945162   0.30941203   -7.3256431   -139.58739 
   11440    3.0660115   -7.6732711   0.30109585   -7.3264793   -152.46498 
   11450    2.4677139   -7.6790013   0.31503334    -7.327189   -142.88532 
   11460    2.5804455   -7.6826716   0.31650251     -7.32771   -117.78562 
   11470    3.3807833   -7.7154031   0.33675266   -7.3282631   -86.488206 
   11480    4.1224943   -7.7349901   0.34428568   -7.3292625   -29.698645 
   11490    3.9898232   -7.7493409   0.35908587   -7.3307905    10.325575 
   11500    3.1922334   -7.7477493   0.36790289   -7.3322692    62.321565 
   11510    2.7494355   -7.7563076   0.38175891    -7.333571    65.245683 
   11520    3.0017037   -7.7679474   0.38860414   -7.3346057    59.349702 
   11530    3.5311367   -7.7702036   0.38138201   -7.3361934     15.54498 
   11540    3.8354592    -7.764325   0.36853622   -7.3386249   -32.277075 
   11550    3.6612516    -7.741677   0.34564868   -7.3414608   -78.001062 
   11560    3.0595889   -7.7174892   0.32757545   -7.3443135   -124.22975 
   11570    2.3553887   -7.6889054   0.30700926   -7.3467913   -138.67709 
   11580     2.044349   -7.6808974   0.30177239    -7.348656   -161.34875 
   11590    2.3488504   -7.6885578   0.30311975   -7.3504307   -143.84434 
   11600    3.0231406   -7.7129274   0.31528035   -7.3525901    -136.6919 
   11610    3.6010799   -7.7380461   0.32892707   -7.3554484   -93.881109 
   11620    3.6971074   -7.7612462   0.34713254   -7.3590118   -56.643022 
   11630    3.1605329   -7.7716301    0.3617611   -7.3627642   -7.3637669 
   11640    2.1745411   -7.7695756   0.37139214    -7.365774    36.591892 
   11650    1.3866538   -7.7602681   0.37191709   -7.3676843    53.397951 
   11660    1.4527122   -7.7634815   0.37271924    -7.369111    59.647398 
   11670      2.20646   -7.7698886   0.36634661   -7.3706568    19.760945 
   11680    2.8311903   -7.7763264   0.36142681   -7.3727034   -10.821741 
   11690    2.7485646   -7.7606715   0.34474434   -7.3749624   -66.713157 
   11700    2.0829168   -7.7450471   0.33711777   -7.3768855   -97.485107 
   11710    1.2982454   -7.7163185   0.31886192   -7.3781074   -130.15066 
   11720    0.7920349   -7.7042018   0.31376478   -7.3786324   -144.10363 
   11730   0.80639722   -7.6943863   0.30345185   -7.3789158   -141.20209 
   11740    1.3435869   -7.7115901   0.31244276   -7.3791224   -136.75261 
   11750    2.1047288   -7.7302106   0.32050176   -7.3783399   -100.77107 
   11760    2.5663111    -7.754866   0.33840953   -7.3782081   -77.485957 
   11770    2.3421394   -7.7680648   0.35524141    -7.377916   -21.475519 
   11780    1.5560046   -7.7700542   0.36935615   -7.3775073    7.1367105 
   11790   0.77489173   -7.7691236   0.38053507   -7.3770395    46.512974 
   11800    0.6478648   -7.7582887   0.37206863   -7.3765643    49.866077 
   11810    1.4469579   -7.7668695   0.36997156   -7.3753324    35.535304 
   11820    2.8284751    -7.764678   0.35086716   -7.3716552    2.9005302 
   11830    3.9972729   -7.7729728   0.34890862   -7.3644887   -53.865477 
   11840    4.2499303   -7.7445173   0.32607073   -7.3551054   -86.803249 
   11850    3.5602174   -7.7237115   0.32420589   -7.3464439   -142.85392 
   11860    2.5309873   -7.6848642   0.30696831    -7.340174   -150.16296 
   11870    1.9616063   -7.6727372   0.30750154   -7.3359998   -180.16218 
   11880    2.4341196   -7.6687872    0.3004087   -7.3321002   -159.59376 
   11890     3.995005   -7.6954417   0.30839439   -7.3275055   -149.91906 
   11900    6.0457088   -7.7358716   0.32398671   -7.3217794   -106.82519 
   11910    7.4073319    -7.769975   0.34242794   -7.3171478   -51.731829 
   11920    7.0722293   -7.7915094   0.37035307   -7.3157514   0.46996625 
   11930    5.3414903    -7.782566   0.38595786   -7.3169983    68.540168 
   11940    3.7214176   -7.7770297   0.40286175   -7.3187038    79.596564 
   11950     3.538828   -7.7636937   0.39063416   -7.3203167     95.33641 
   11960    4.5970986   -7.7673207   0.37649478   -7.3223105    39.468922 
   11970    5.6644112   -7.7628506   0.35282788   -7.3256001    1.0689568 
   11980    5.7726259   -7.7530626   0.33642836   -7.3305987   -67.745527 
   11990    4.8950991   -7.7321728   0.32264246   -7.3365736   -108.95272 
   12000    3.6726479   -7.7091198   0.31270271   -7.3416798   -140.28365 
   12010    2.7315223   -7.7002583   0.31399001   -7.3455575   -162.67877 
   12020    2.4325756   -7.6998447   0.31518291   -7.3484066   -151.97126 
   12030    2.7757991   -7.7147866   0.32242518   -7.3509907   -151.58935 
   12040    3.4498623   -7.7353788   0.33022191     -7.35374   -107.67959 
   12050    3.9732872   -7.7590375   0.34267896   -7.3571405    -83.83637 
   12060     3.918112   -7.7795622   0.36028145   -7.3608851   -25.838204 
   12070    3.2761635   -7.7818252   0.36862484   -7.3643723     8.447664 
   12080    2.5177409   -7.7898129   0.38501124   -7.3672772    42.126103 
   12090    2.2080419   -7.7834592   0.38144203   -7.3691084    50.383623 
   12100     2.495307    -7.793554    0.3856964   -7.3706675    28.404346 
   12110    3.0004483   -7.7788559   0.36177369   -7.3723634     5.362747 
   12120    3.2609397   -7.7760473    0.3532518   -7.3741943   -47.510398 
   12130    3.1170895   -7.7531921   0.33068402   -7.3760509   -72.082119 
   12140    2.7717756   -7.7443877   0.32535748   -7.3777195   -115.33554 
   12150    2.5328602   -7.7328058   0.31612877   -7.3789272    -122.2436 
   12160    2.5246752   -7.7360644   0.31845787   -7.3799787   -136.51365 
   12170    2.6711325   -7.7498418   0.32904882   -7.3809823   -126.50415 
   12180    2.7901431   -7.7591236   0.33553085   -7.3820084   -108.60821 
   12190    2.7650961   -7.7781291   0.35382841   -7.3830895   -86.077867 
   12200    2.6015119   -7.7787419   0.35599985    -7.383969   -45.547074 
   12210     2.371597   -7.7949872   0.37484808   -7.3847927   -24.256182 
   12220    2.2480067   -7.7879365   0.36885268   -7.3855794    12.735245 
   12230    2.3988936   -7.8000685   0.37848457   -7.3858307    12.667965 
   12240    2.7989021   -7.7958625   0.36801181   -7.3861357    17.082458 
   12250    3.0956818   -7.8024365   0.36985465   -7.3864437   -11.364953 
   12260    2.9372941   -7.7857763   0.35508834   -7.3869104   -36.219801 
   12270    2.3851324   -7.7676327   0.34474122   -7.3873434   -66.674004 
   12280    1.8118043   -7.7470719   0.33258798   -7.3874807   -95.033634 
   12290    1.5720439   -7.7333821   0.32254092   -7.3874114   -106.17334 
   12300    1.8013038   -7.7341458   0.32022336   -7.3870757   -120.87487 
   12310    2.4144823   -7.7411511   0.31884185   -7.3863237   -108.67721 
   12320     3.089851   -7.7643728   0.33346663   -7.3848549   -104.38527 
   12330    3.3730043   -7.7795331   0.34644115   -7.3828206   -76.035038 
   12340    3.0526311   -7.7906383     0.364502   -7.3806397   -53.405072 
   12350    2.4278241   -7.7893452   0.37487069   -7.3782901   -23.595661 
   12360     2.068981   -7.7879416   0.38108604   -7.3760193  -0.23257251 
   12370    2.3850554   -7.7895519     0.380827   -7.3731779    5.6736553 
   12380    3.3810669   -7.7885825   0.36944947   -7.3687414    8.7943905 
   12390    4.7038259   -7.7947543   0.36241573   -7.3622325   -17.907469 
   12400    5.6576212   -7.7894449   0.35104579   -7.3540776   -37.696521 
   12410    5.5826546    -7.775929   0.34618761   -7.3465372   -76.209882 
   12420    4.6477104   -7.7454843    0.3350949   -7.3411196     -97.0251 
   12430    3.8233104   -7.7202919   0.32601966   -7.3372895   -116.33764 
   12440    3.9900295   -7.7167287   0.32301902   -7.3342421   -124.55311 
   12450    5.1331236   -7.7238418   0.31617824   -7.3311592   -113.33524 
   12460    6.6121231   -7.7535855   0.32660249   -7.3284356   -104.19231 
   12470    7.6233751   -7.7717272   0.33037444   -7.3277335   -67.204894 
   12480    7.4065565   -7.8031576   0.36241195    -7.330358   -48.022038 
   12490    5.8666672   -7.7952951   0.37230315   -7.3355548   -8.0049112 
   12500    3.9477949   -7.7970523   0.39746803   -7.3407461    4.3444334 
   12510    2.9723548     -7.77914    0.3898693   -7.3449706    14.569123 
   12520    3.2945995   -7.7867859    0.3889723   -7.3487107    1.7017729 
   12530    4.1293812   -7.7796093   0.36495211   -7.3531127   -23.960752 
   12540    4.6225212    -7.776355   0.34885897   -7.3586018   -46.274683 
   12550    4.4452256   -7.7681418    0.3374013   -7.3644886   -82.283211 
   12560    3.6683138   -7.7553256   0.33068799   -7.3699649    -94.55893 
   12570    2.5948385   -7.7471813   0.33462289   -7.3738848   -116.69546 
   12580    1.7939669    -7.731876     0.328985   -7.3761537   -110.11903 
   12590    1.7479833   -7.7429852    0.3395239   -7.3774093   -108.01805 
   12600    2.3045873   -7.7474703   0.33469383   -7.3784288   -87.019729 
   12610    2.8490719   -7.7676744   0.34566795   -7.3795438   -61.089044 
   12620     2.973795   -7.7697638   0.34486114   -7.3805811   -35.987159 
   12630    2.7180029   -7.7864445   0.36437417   -7.3815611   -4.9633302 
   12640     2.274102    -7.790879   0.37482247   -7.3821632    1.6656784 
   12650    1.8824798   -7.7992372   0.38870836   -7.3824722    13.012203 
   12660    1.9239091   -7.7974316   0.38623845   -7.3825192   -7.5713804 
   12670    2.4824714   -7.7980829   0.37847229   -7.3826117   -24.082986 
   12680    3.1072684   -7.7898809   0.36115614   -7.3824139   -57.396824 
   12690    3.2683384   -7.7723457   0.34153351   -7.3821007   -84.020123 
   12700    2.9210956   -7.7535183   0.32808573   -7.3818965   -102.83242 
   12710    2.4273573   -7.7407434   0.32286499    -7.381701   -122.70348 
   12720    2.0423689   -7.7377498   0.32588626   -7.3814239   -116.23267 
   12730    1.9140078   -7.7425691   0.33313105   -7.3809116   -119.28261 
   12740    2.1894113   -7.7548972   0.34197484   -7.3802912   -87.967317 
   12750    2.8016897   -7.7750313   0.35393348   -7.3793413    -71.44187 
   12760    3.2691079   -7.7862315    0.3593893   -7.3781193    -28.17072 
   12770      3.12995   -7.7899007   0.36636552   -7.3768863  -0.82746711 
   12780    2.6191851   -7.7850283   0.37020021   -7.3757916    24.005725 
   12790    2.3018761   -7.7881926   0.37917317   -7.3747122     32.30283 
   12800    2.3489939   -7.7911422   0.38254931   -7.3735833    11.073341 
   12810    2.5521326   -7.7884634   0.37851621   -7.3719101   -5.7838717 
   12820    2.7235996   -7.7812674   0.37049102   -7.3701837   -56.125065 
   12830    2.7874438   -7.7609841   0.35125131   -7.3681886   -77.405744 
   12840    2.6316893   -7.7423323   0.33709481   -7.3660146   -121.94307 
   12850    2.3403681   -7.7131335   0.31442896   -7.3638236    -128.4726 
   12860    2.2949341   -7.7101256   0.31425132   -7.3616705   -144.42846 
   12870    2.8071343    -7.710134   0.30955875   -7.3587376   -134.18488 
   12880    3.7812265   -7.7397364   0.32880442   -7.3545764   -113.02509 
   12890    4.7255499    -7.757039   0.33748046   -7.3491287   -85.993037 
   12900    5.1790487   -7.7866254   0.36617303   -7.3432636   -30.741001 
   12910    4.9768713    -7.788731    0.3764866   -7.3380688    2.0006096 
   12920    4.3018058   -7.7869494   0.38885495   -7.3339802    59.051917 
   12930    3.8774139   -7.7721898    0.3834255   -7.3309751    61.693495 
   12940    4.5138298   -7.7755611   0.38048291   -7.3278038    64.415007 
   12950    6.0585635   -7.7891197   0.37418254     -7.32464    16.062133 
   12960      7.27663   -7.7924725   0.36166179   -7.3223594    -31.24301 
   12970    7.2393113   -7.7832906   0.35264301   -7.3227525   -81.003887 
   12980    6.1686707   -7.7531993   0.33500522   -7.3262559   -130.39696 
   12990     4.832999   -7.7314179   0.32780404   -7.3315825   -146.23894 
   13000     3.850088   -7.7035575   0.30869562     -7.33748   -172.87019 
   13010    3.4364585   -7.7033245   0.30817145   -7.3439359   -152.62485 
   13020    3.5225718   -7.7087217    0.3048088   -7.3514123   -149.02576 
   13030    3.7752352   -7.7381828   0.32139086   -7.3605256   -105.39173 
   13040    3.6734506   -7.7586763   0.33369082   -7.3702362   -72.883876 
   13050    2.9627001   -7.7811977   0.35867533   -7.3783661    -25.54847 
   13060    1.9287907   -7.7850028   0.37292783   -7.3833281    14.663937 
   13070    1.1717211   -7.7873734   0.38433301    -7.385577    33.718955 
   13080    1.1006404   -7.7812741   0.37823963   -7.3866305    47.550094 
   13090    1.6238084   -7.7817791   0.37018209   -7.3873957    17.819247 
   13100    2.2753875   -7.7781237   0.35613793   -7.3880733   -3.3329089 
   13110    2.5232149   -7.7713117   0.34496402   -7.3887415   -56.793764 
   13120    2.1407071   -7.7547071   0.33372463   -7.3890773   -84.052333 
   13130    1.3433277   -7.7374367   0.32823416   -7.3891815   -121.97347 
   13140   0.61633572   -7.7222795   0.32401113   -7.3890824   -136.27691 
   13150   0.40151823   -7.7161799   0.32126143   -7.3889342   -142.17838 
   13160   0.82753567   -7.7203211   0.31938726   -7.3886002   -138.76423 
   13170    1.7066261   -7.7363597   0.32328793   -7.3876361   -111.16493 
   13180    2.6268987   -7.7576234   0.33274111   -7.3857309    -89.39479 
   13190    3.0907166   -7.7749809   0.34579457   -7.3831221   -36.062956 
   13200    2.7994997   -7.7853909   0.36315893   -7.3805081   -4.4347118 
   13210      1.94857   -7.7859433    0.3785692   -7.3783325    42.108099 
   13220    1.2769497   -7.7862738   0.39041576   -7.3768264    50.689889 
   13230    1.4654388   -7.7805368   0.38339155   -7.3753043    48.576977 
   13240    2.4200478   -7.7806851   0.37159739   -7.3730192    17.737371 
   13250    3.3808674   -7.7672583   0.34740801   -7.3694616   -29.161494 
   13260    3.6829188   -7.7548537   0.33451423   -7.3654491   -69.485446 
   13270    3.3021533   -7.7254218   0.31428997   -7.3619164   -118.65952 
   13280    2.6285407   -7.7131172    0.3147476   -7.3591937   -137.12402 
   13290    2.1297872   -7.6975307   0.30868356   -7.3571047   -161.83416 
   13300    2.1507169   -7.7088479   0.32161634   -7.3551772   -152.73195 
   13310    2.7749231   -7.7153048   0.32118045   -7.3527668   -142.50727 
   13320    3.7175099    -7.741825   0.33652195   -7.3498971   -109.25002 
   13330    4.3158931   -7.7546451    0.3435208      -7.3468   -64.134814 
   13340    3.9778389   -7.7624669   0.35902814   -7.3441528   -16.724716 
   13350    2.8430005   -7.7546075   0.36995201   -7.3422833    41.558433 
   13360    1.7945933   -7.7495315   0.38163035   -7.3411545    64.460446 
   13370    1.7124646    -7.758871   0.39316328    -7.340185     78.44483 
   13380    2.6610853   -7.7618174   0.38330182   -7.3388546    43.285784 
   13390    3.9507066   -7.7682409   0.37280338    -7.336556    4.2133438 
   13400    4.6864602   -7.7446808   0.34083076   -7.3340028   -52.004704 
   13410    4.4198818   -7.7261276   0.32804925   -7.3322042   -100.03812 
   13420    3.5139469   -7.6847305   0.30122479   -7.3311337   -130.64808 
   13430    2.7290447   -7.6726087   0.30146686    -7.330468    -158.6043 
   13440    2.5841806   -7.6657952   0.29752697   -7.3297535   -153.52862 
   13450    3.0086651   -7.6921089   0.31824584   -7.3290218    -154.4339 
   13460    3.6380441   -7.7127123   0.33036088   -7.3281298   -116.87841 
   13470    4.2196273   -7.7418623   0.35204062   -7.3269321   -86.230128 
   13480    4.5151008   -7.7603202   0.36661721   -7.3264097   -31.422357 
   13490    4.3120524   -7.7692444   0.37823251   -7.3267448    14.385814 
   13500    3.7898096   -7.7645348   0.38042281   -7.3276285    51.219684 
   13510    3.6562047   -7.7587651   0.37544152   -7.3288313    70.163525 
   13520    4.2620593   -7.7686726   0.37445501   -7.3306957    45.452589 
   13530    4.7361405   -7.7717941   0.36786967   -7.3333368    15.520784 
   13540    4.1964739    -7.756381   0.35654561   -7.3372909   -42.019099 
   13550    3.0148104   -7.7267692    0.3404503    -7.341386    -77.37463 
   13560    2.0721096   -7.6992214   0.32365252   -7.3446861   -116.75922 
   13570    1.7200703   -7.6859974    0.3130287   -7.3473327   -133.89927 
   13580    1.9050664   -7.6814294    0.3029722   -7.3500639   -138.31142 
   13590    2.4638485   -7.6979653   0.30794445   -7.3532995    -135.3646 
   13600    2.9808071   -7.7214358   0.31938265    -7.357627   -109.81523 
   13610    2.9030377   -7.7454892    0.3398192    -7.362403   -90.344894 
   13620    2.1657054   -7.7573347   0.35846649   -7.3665905   -47.235248 
   13630    1.2941644   -7.7581657   0.36969991   -7.3691775   -22.156715 
   13640   0.84264745   -7.7609507   0.37791346   -7.3704783    9.3847003 
   13650   0.91978801   -7.7521894   0.36708866   -7.3713922    18.390932 
   13660     1.419716   -7.7563391   0.36302591   -7.3721537    13.971959 
   13670     2.128067   -7.7513285   0.34674389   -7.3728678    -2.208286 
   13680    2.5421315   -7.7626767   0.35110764    -7.373681   -39.767579 
   13690    2.2558335   -7.7447497   0.33681855   -7.3743101     -61.3185 
   13700    1.5368673   -7.7360302   0.33839391   -7.3747308   -99.100289 
   13710    1.0963905    -7.713914   0.32283622   -7.3747371   -105.04151 
   13720    1.2685037   -7.7165594   0.32311146   -7.3745421   -123.15218 
   13730    1.8875752   -7.7170553   0.31485397   -7.3740689   -111.09149 
   13740    2.6653903   -7.7319208   0.31899572      -7.3732   -101.70959 
   13750      3.27128   -7.7525414   0.33171907    -7.372067   -79.106809 
   13760     3.298249   -7.7681136   0.34817071   -7.3707856   -47.903875 
   13770    2.6166401   -7.7819187   0.37293743   -7.3699827   -27.834938 
   13780    1.8355536   -7.7744187   0.37755802   -7.3695035    6.1610287 
   13790    1.7793047   -7.7842068   0.38874077   -7.3689472    2.5068831 
   13800    2.5713224   -7.7772455    0.3708663   -7.3680561    11.854119 
   13810    3.6244739   -7.7843214   0.36354809   -7.3667539   -19.330677 
   13820    4.2578937   -7.7683962   0.33949439   -7.3654419   -34.952798 
   13830    4.1331991   -7.7623991   0.33602198   -7.3647757   -70.486366 
   13840    3.2376486   -7.7395982   0.32678489   -7.3645592   -93.388778 
   13850    2.0270104   -7.7210086   0.32631411   -7.3644838   -106.03037 
   13860    1.3609945    -7.709028   0.32445214   -7.3642915   -119.13651 
   13870    1.7305682   -7.7146041   0.32486767    -7.363944   -101.80189 
   13880    2.7755861   -7.7341459   0.32959017   -7.3631883   -99.260558 
   13890      3.67053   -7.7480244   0.33131833   -7.3620003   -58.319936 
   13900    3.8409659   -7.7628136   0.34448615   -7.3610815   -42.015924 
   13910    3.2292995   -7.7682016   0.35939486   -7.3606771   -3.4738054 
   13920    2.0818147   -7.7685111   0.37712155   -7.3603621    8.7140787 
   13930    1.0954754   -7.7633552   0.38694822     -7.36008    15.589648 
   13940    1.0419894   -7.7581816   0.38289776    -7.359754    8.4168217 
   13950      1.99495   -7.7634852   0.37474064   -7.3590117   -25.600422 
   13960    3.1620662   -7.7543408    0.3496195   -7.3575937   -43.447318 
   13970    3.6937639    -7.745133   0.33418143   -7.3558995   -89.990587 
   13980    3.4776869   -7.7215401   0.31519946    -7.354509    -97.36573 
   13990    2.8414429    -7.711911   0.31603609   -7.3535259   -129.04742 
   14000    2.2071673    -7.700743   0.31503481   -7.3528125   -119.69159 
   14010    2.0286773   -7.7043048   0.32205608   -7.3520132   -119.27131 
   14020     2.665769   -7.7246547   0.33378359   -7.3511404   -95.747256 
   14030    3.8776316   -7.7487241    0.3408497   -7.3500819   -61.183168 
   14040    4.7418458   -7.7769967   0.35731198   -7.3490121   -32.535148 
   14050    4.6517146    -7.773767   0.35573216   -7.3487055    18.532776 
   14060    3.9725036   -7.7860035   0.37768814   -7.3491089    24.087517 
   14070    3.4078444   -7.7760146   0.37545564   -7.3497683    46.223171 
   14080    3.2476138   -7.7898496   0.39098817   -7.3504588    9.9817955 
   14090    3.4746253   -7.7751932   0.37225537   -7.3511518   -7.0122951 
   14100    3.9208061    -7.779053   0.36857411    -7.352043   -58.247492 
   14110    4.1965099   -7.7588368   0.34303102   -7.3532607   -90.566513 
   14120    3.9832991    -7.742343   0.32816792   -7.3548078   -119.09105 
   14130    3.3991144   -7.7197327    0.3126863   -7.3563858   -142.02713 
   14140    2.8598546   -7.7071262   0.30682029   -7.3576825   -134.80005 
   14150    2.6763208   -7.7144462   0.31600053   -7.3585577   -140.25784 
   14160    2.8148633   -7.7223334   0.32103017   -7.3593504     -101.636 
   14170    3.0686466   -7.7506651   0.34486323   -7.3600666   -84.509229 
   14180    3.2308758   -7.7629307   0.35398809   -7.3607895   -29.392086 
   14190    3.0652255   -7.7828227   0.37564515   -7.3614932    1.3530527 
   14200     2.610589   -7.7746985   0.37359501   -7.3621952    39.802302 
   14210    2.3346089   -7.7784204   0.38112347   -7.3625018    50.714786 
   14220    2.6492366   -7.7773188   0.37514386   -7.3626906    33.284777 
   14230    3.2857089   -7.7848584   0.37304608    -7.362842    8.1141153 
   14240    3.6036661   -7.7782429   0.36146788   -7.3630658   -46.276935 
   14250    3.3798078   -7.7640606   0.35022236   -7.3634654   -75.886491 
   14260    2.8738487   -7.7455494   0.33880128   -7.3639162   -124.13465 
   14270    2.4607371    -7.726344   0.32541757   -7.3642515   -136.19952 
   14280    2.3882835   -7.7166281   0.31637827   -7.3646548   -154.13831 
   14290    2.7659725   -7.7189614   0.31293959   -7.3647976   -145.48623 
   14300     3.526448   -7.7361079    0.3187677   -7.3647819   -127.24567 
   14310    4.3089033    -7.761768   0.33257399   -7.3649739   -100.11333 
   14320    4.5910022   -7.7811962   0.34702122   -7.3657505   -49.688016 
   14330    4.1002402   -7.7991643   0.37091582   -7.3671383   -14.339412 
   14340    3.1406593   -7.7986944   0.38324181    -7.368644    38.146716 
   14350    2.4580765   -7.8016082   0.39512201   -7.3698509    49.938364 
   14360    2.5854935   -7.7951479   0.38586797   -7.3707457    58.592719 
   14370    3.3712221    -7.801803   0.37985449   -7.3717036    24.794749 
   14380    4.0890309   -7.7981492   0.36413312   -7.3730729   -14.560011 
   14390    4.0751689    -7.787324   0.35171364   -7.3748739   -60.544298 
   14400    3.2792384   -7.7661096   0.34026906   -7.3769666   -105.04055 
   14410    2.1903894   -7.7412484   0.33001154   -7.3785912   -127.53114 
   14420    1.4216094   -7.7301282   0.32942895   -7.3795115   -152.83222 
   14430    1.3105818   -7.7198582   0.32032433   -7.3800009   -145.05002 
   14440    1.8254728   -7.7355873    0.3281597   -7.3802206   -142.92231 
   14450    2.6277173   -7.7459967   0.32633166   -7.3805015   -109.75455 
   14460    3.1941066   -7.7744251   0.34604966   -7.3807703   -78.996742 
   14470    3.0973991   -7.7791305   0.35183461   -7.3811321   -31.404214 
   14480    2.2933336   -7.7920265   0.37632043   -7.3815261    12.139058 
   14490    1.3138504   -7.7857746   0.38452076   -7.3816722    41.221826 
   14500   0.96262226   -7.7920998   0.39615355   -7.3815993    57.016914 
   14510    1.6089414   -7.7914627    0.3862678   -7.3812151     37.13911 
   14520    2.8453485   -7.7965435   0.37422972   -7.3799066    9.6192073 
   14530    3.8400809   -7.7913219   0.35694364   -7.3771455   -41.497774 
   14540    4.0601678   -7.7727617   0.33909133   -7.3731574   -82.122128 
   14550    3.5606483   -7.7503302   0.32840713    -7.368855   -121.71299 
   14560    2.7971441   -7.7250514   0.31871588   -7.3646468   -147.78111 
   14570    2.3276741   -7.7196453   0.32414436   -7.3608092   -157.11794 
   14580    2.5827168   -7.7185864   0.32339922   -7.3566942   -159.69753 
   14590    3.7217687   -7.7417224   0.33513303   -7.3511199   -134.90722 
   14600    5.3938076   -7.7642029   0.34035331   -7.3434601   -109.18472 
   14610    6.7024358    -7.793424   0.35862746   -7.3349031   -55.541494 
   14620    6.7723856   -7.7972643   0.36797002   -7.3283583   -5.3143976 
   14630    5.6117677   -7.7919717   0.38355961    -7.324774    48.364679 
   14640    4.3292433   -7.7798376   0.39189464   -7.3234197    80.158338 
   14650    3.9997645   -7.7823748   0.39981769   -7.3229444     73.71309 
   14660    4.6543786   -7.7817713   0.38947551   -7.3229267    50.081101 
   14670    5.4640275   -7.7782463   0.37292346   -7.3238867   -9.8274492 
   14680    5.5657889   -7.7571251   0.34799327   -7.3261791   -52.371933 
   14690    4.7715675   -7.7309108   0.33022272   -7.3295724   -108.60117 
   14700    3.5859285   -7.6987082   0.31209621   -7.3331672   -132.42036 
   14710     2.745632   -7.6857454   0.30878573   -7.3360386    -154.9315 
   14720    2.6103361   -7.6877672   0.31056143   -7.3383012   -155.37211 
   14730    3.0281321   -7.7124388   0.32668125   -7.3406261   -140.81873 
   14740    3.6447015   -7.7365716   0.33867815   -7.3435726   -119.82331 
   14750    4.1008394   -7.7661914   0.35769782   -7.3473745   -74.165442 
   14760    4.1131609    -7.781939   0.36881982   -7.3518165   -41.293483 
   14770    3.5895919   -7.7884529   0.37874753   -7.3562059    10.503814 
   14780    2.8916608   -7.7825734   0.37924756   -7.3602284    30.516284 
   14790    2.6739095   -7.7812501   0.37816186   -7.3632362    46.844738 
   14800    3.0871045   -7.7893934   0.37744462   -7.3659384    27.902561 
   14810    3.5979693   -7.7921216   0.36922173   -7.3692756   -2.8917118 
   14820    3.7044037   -7.7897926   0.36155481   -7.3730272   -38.177286 
   14830    3.4416046   -7.7719603   0.34409028   -7.3765761   -80.199392 
   14840    3.1031787   -7.7632549   0.33728038   -7.3797246   -99.871313 
   14850    2.8461845   -7.7455675   0.32110172   -7.3820461   -126.43241 
   14860    2.7556815   -7.7473583   0.32189306   -7.3843944   -121.83737 
   14870    2.8654153   -7.7481933   0.31910044   -7.3863866   -124.33791 
   14880    3.0048441   -7.7708945    0.3377571    -7.388353   -102.21592 
   14890    2.8912457   -7.7810107   0.34786737   -7.3900521   -80.354987 
   14900    2.4641591   -7.7965824   0.36832559   -7.3915309   -51.408249 
   14910     2.007963   -7.7975079   0.37501798   -7.3925631   -18.419416 
   14920    1.7968067   -7.8023582   0.38225145   -7.3933271   -4.9633299 
   14930    1.8704911   -7.7962966   0.37472342   -7.3936953    14.759675 
   14940    2.1260132   -7.7906484   0.36498141   -7.3939807   -1.6692529 
   14950    2.3982696   -7.7861599   0.35644912   -7.3939669   -8.3900075 
   14960    2.4034393   -7.7783215   0.34873804   -7.3937625   -45.405908 
   14970    1.9253408   -7.7680919   0.34590154    -7.393495   -65.440964 
   14980    1.2369371   -7.7473531   0.33576595   -7.3931518   -92.721571 
   14990   0.87071806   -7.7397194   0.33398591   -7.3927563   -108.30467 
   15000    1.0435772   -7.7315899   0.32381951   -7.3922168   -110.11097 
   15010    1.5640052   -7.7392656   0.32472671   -7.3912289   -114.25929 
   15020    2.1557176   -7.7441924   0.32250928   -7.3895542   -89.119314 
   15030    2.5977698   -7.7638544   0.33788324   -7.3872539   -81.848599 
   15040    2.5994775   -7.7754438    0.3519828   -7.3847183   -41.630266 
   15050    2.0709546   -7.7858786     0.372623     -7.38239    -28.27909 
   15060    1.5082001   -7.7855951   0.38251419   -7.3806026    3.6264317 
   15070    1.6037473   -7.7899938    0.3871149   -7.3789765      5.23237 
   15080    2.4597724   -7.7897915   0.37635371   -7.3767772    1.8645667 
   15090    3.4795465   -7.7847994   0.35938673   -7.3735534   -13.859907 
   15100     4.071408   -7.7732631   0.34230098   -7.3702816   -48.644862 
   15110    4.0208409   -7.7615209   0.33389065   -7.3677034   -66.617103 
   15120    3.3527371   -7.7441292   0.32809509   -7.3660648    -106.0629 
   15130     2.522391   -7.7305051   0.32781014   -7.3651011   -106.85989 
   15140     2.287856   -7.7236089   0.32511461   -7.3643959   -126.22855 
   15150    3.0089319   -7.7390715   0.33059855   -7.3636277   -108.70348 
   15160    4.1618054   -7.7540308   0.32921052   -7.3627925   -98.879011 
   15170       4.8136   -7.7703622   0.33631475   -7.3623053   -69.373647 
   15180    4.5529023   -7.7734802   0.34293705   -7.3626865   -35.761746 
   15190    3.5655368   -7.7782316   0.36153672    -7.363554    -14.65245 
   15200    2.3156331   -7.7756546   0.37707384   -7.3640684    16.436765 
   15210    1.4697844   -7.7716102   0.38534381   -7.3643607    8.5625778 
   15220    1.6259236   -7.7758788   0.38740436   -7.3642416    12.000998 
   15230    2.6354039   -7.7733779   0.37011187   -7.3639879   -25.879241 
   15240    3.5566913   -7.7723312   0.35578281   -7.3635393   -45.866106 
   15250    3.6270411   -7.7431816   0.32585909   -7.3632649   -82.076525 
   15260    2.9359712   -7.7283812   0.32136499   -7.3632584   -103.89452 
   15270    2.0453548   -7.7012407   0.30758451   -7.3631721   -115.31655 
   15280    1.3805225   -7.7037215   0.32006408   -7.3630821   -126.50772 
   15290    1.2398939    -7.699648   0.31844419   -7.3627243    -105.9107 
   15300    1.8118247   -7.7269882   0.33792787   -7.3620568   -100.12432 
   15310    2.7995394   -7.7451047   0.34265408   -7.3607262   -54.692131 
   15320    3.4250568   -7.7644148   0.35455564   -7.3588119   -32.811767 
   15330    3.2284144   -7.7648945    0.3599471   -7.3568309    14.002704 
   15340    2.6478031   -7.7623689   0.36789531   -7.3550107    28.312012 
   15350    2.4305038   -7.7697302   0.37994088    -7.353565     34.79179 
   15360    2.8194565   -7.7705153   0.37673385   -7.3517601    19.507947 
   15370    3.6131047    -7.782227   0.37887395   -7.3495032   -20.023019 
   15380    4.4624421   -7.7715679   0.35843013   -7.3466294   -49.615408 
   15390    4.9058798   -7.7642475    0.3473748   -7.3437552    -101.9637 
   15400    4.6426781   -7.7291773   0.31838055   -7.3416021   -117.08277 
   15410    3.8840316   -7.7069274    0.3087337   -7.3403059    -148.7173 
   15420    3.2970105   -7.6876986   0.29901686   -7.3395429   -141.01169 
   15430    3.3619366   -7.6948706   0.30592298   -7.3388412   -139.11406 
   15440    3.9934058   -7.7140287   0.31638221   -7.3381286   -111.00487 
   15450    4.7339802   -7.7438251   0.33562403   -7.3376456   -73.695622 
   15460    5.0607539   -7.7716053   0.35827689   -7.3379027   -33.940424 
   15470    4.6757467   -7.7817191    0.3727247   -7.3393068     20.05476 
   15480    3.7808299   -7.7768174   0.37913317   -7.3413346    43.687152 
   15490     3.083486   -7.7677222   0.37796571   -7.3438001     64.40158 
   15500    3.0933935    -7.765364   0.37271295    -7.346547    36.583952 
   15510    3.4332974   -7.7683991   0.36704569   -7.3501833    5.2716742 
   15520    3.3796524   -7.7566964   0.35150404   -7.3548219   -44.422657 
   15530    2.7517671   -7.7460847   0.34542685   -7.3596454   -87.355698 
   15540    1.9240768   -7.7200318   0.32780669   -7.3635485   -117.05542 
   15550    1.3159585   -7.7084885   0.32270292   -7.3661725   -143.32349 
   15560    1.1203881   -7.6930068   0.30835134   -7.3679571   -141.49575 
   15570     1.361348   -7.7017968   0.31211665   -7.3693905   -143.23532 
   15580     1.893295   -7.7141171   0.31475616   -7.3711432   -115.66587 
   15590    2.3700687    -7.736512   0.32802864   -7.3731597    -91.71175 
   15600    2.4043895   -7.7556411   0.34464056   -7.3751654   -49.514329 
   15610    1.8784415   -7.7641423   0.35915935   -7.3769866   -11.432549 
   15620    1.1280083   -7.7714009   0.37671934   -7.3778696    19.139424 
   15630   0.69504383   -7.7604118   0.37184423   -7.3782086    41.526952 
   15640   0.91623624   -7.7675497   0.37558742   -7.3783066    30.632714 
   15650      1.67188   -7.7607493   0.35758383   -7.3782477    15.000778 
   15660    2.4447146   -7.7718472   0.35755097   -7.3778601   -31.011682 
   15670    2.7497833   -7.7549234   0.33671277   -7.3772278   -62.876689 
   15680    2.4819277   -7.7496038   0.33610664   -7.3765063   -104.32761 
   15690    1.9573951    -7.727988   0.32308239   -7.3757325   -126.51933 
   15700    1.6204528   -7.7230104   0.32388697   -7.3749721     -140.803 
   15710    1.7487869   -7.7183823   0.31830938   -7.3740089   -143.91045 
   15720    2.3570251    -7.728085   0.32040817   -7.3725476   -125.65065 
   15730      3.19488   -7.7482849   0.33040068   -7.3702676   -107.85466 
   15740    3.8255393   -7.7638786   0.33956953   -7.3672931   -62.027076 
   15750    3.8287117   -7.7821216    0.3606246   -7.3644337   -27.082688 
   15760    3.1486374   -7.7800475   0.37137582   -7.3617442    22.794384 
   15770    2.3307373   -7.7850736   0.39073045   -7.3596057    47.013444 
   15780    2.1315463   -7.7766926   0.38736918   -7.3575547    56.684371 
   15790    2.8175161   -7.7796873   0.38265974   -7.3550351    41.250485 
   15800    3.8456239    -7.772152   0.36350087   -7.3513358   -1.7768183 
   15810    4.3530549   -7.7589816   0.34748723   -7.3466163   -39.929345 
   15820    3.9219253   -7.7313769   0.33076267   -7.3421616   -95.579482 
   15830    2.7878396   -7.6977461   0.31753911   -7.3386569    -119.5042 
   15840    1.5760426   -7.6740984   0.31429949   -7.3363095   -153.06679 
   15850   0.89764898   -7.6615251   0.31339643     -7.33475   -153.21318 
   15860    1.1252829   -7.6681183   0.31813823   -7.3332087   -150.89565 
   15870    2.2597153   -7.6887594   0.32483594   -7.3302445   -128.08647 
   15880     3.784378   -7.7166958   0.33557985   -7.3247134   -84.413013 
   15890    4.7806386   -7.7439669   0.35507385   -7.3176421   -42.827058 
   15900    4.5469993   -7.7448197   0.36534923   -7.3117017    30.605822 
   15910    3.4247756   -7.7484178   0.38943723   -7.3079376     62.34834 
   15920    2.6944926   -7.7380987   0.39224795   -7.3056919    103.39975 
   15930    3.2737464   -7.7569612   0.40410527   -7.3040639    72.984617 
   15940    4.8249516    -7.752024   0.37754039   -7.3025723    43.326281 
   15950    6.0929513   -7.7561025   0.36352755   -7.3017653   -22.594816 
   15960    6.2640889   -7.7284411   0.33237581    -7.302705   -78.546235 
   15970    5.5493631   -7.7064073   0.31857906   -7.3051202   -118.86344 
   15980    4.7555416    -7.682525   0.30368061   -7.3079676   -159.91344 
   15990    4.5509307   -7.6787695   0.30005317    -7.310889   -156.59551 
   16000    4.9816291   -7.7020581    0.3134292   -7.3143825   -173.16513 
   16010    5.6373924   -7.7230231    0.3200987   -7.3189045   -134.43798 
   16020    5.9957781   -7.7597628   0.34535442    -7.325047   -119.35403 
   16030    5.6912587   -7.7654111   0.34853155   -7.3320568   -60.344803 
   16040    4.6381906   -7.7826059    0.3742975   -7.3391805   -21.891966 
   16050    3.1977936   -7.7619614   0.36965597   -7.3446453     24.24878 
   16060    2.1622326   -7.7623074   0.38197746   -7.3481039    53.166742 
   16070    2.1296384   -7.7536562   0.37160522   -7.3503107     45.76657 
   16080    2.8238816   -7.7698103    0.3751938   -7.3525292    34.579129 
   16090    3.3983909   -7.7666587   0.36092361   -7.3550853   -19.805198 
   16100    3.3047497   -7.7562857   0.34938817   -7.3576434   -46.135524 
   16110    2.6806902   -7.7331463   0.33325457   -7.3599386   -98.238358 
   16120    1.9377902   -7.7099449   0.31954604   -7.3615179   -113.44902 
   16130    1.4400298   -7.6962801   0.31236266   -7.3624551   -135.11129 
   16140     1.423693   -7.6919042   0.30758886   -7.3630965   -134.29256 
   16150     1.827877   -7.7099086   0.31921552   -7.3634503   -120.75462 
   16160    2.2822174   -7.7296158   0.33192054   -7.3636809   -107.11778 
   16170    2.3832564   -7.7518666   0.35246303   -7.3638834   -63.580647 
   16180    2.1002927   -7.7606407   0.36551949   -7.3638183   -42.335259 
   16190    1.7663987   -7.7683475   0.37843306    -7.363588    6.6426083 
   16200    1.7558094     -7.76948   0.38024254   -7.3630688    14.596152 
   16210    2.2835425   -7.7711163   0.37474294   -7.3623393    33.126233 
   16220     3.272048   -7.7750643   0.36520073   -7.3610968    12.439588 
   16230    4.2081232   -7.7801738   0.35799676    -7.359459   -13.678544 
   16240    4.3634146   -7.7726858   0.34968308   -7.3579702   -46.591532 
   16250    3.6116253   -7.7512967   0.34041721   -7.3570517   -88.480012 
   16260    2.6398177   -7.7232114   0.32730828   -7.3565592   -101.30108 
   16270    2.2221648   -7.7115896   0.32244036   -7.3560299    -132.1848 
   16280    2.6256325   -7.7084261     0.313972   -7.3553215   -117.76172 
   16290    3.6354179   -7.7278214   0.31933772   -7.3543012   -124.68364 
   16300    4.7869413   -7.7470043    0.3228664   -7.3527931   -89.643387 
   16310    5.4237151   -7.7809409   0.34823358    -7.351872   -70.978834 
   16320    4.9799741   -7.7900653   0.36374053    -7.352103   -32.253977 
   16330    3.6806888   -7.7958108   0.38782606   -7.3531276   -1.0509024 
   16340    2.5432314   -7.7822963   0.39008843   -7.3543034    12.997525 
   16350    2.3249493   -7.7813398   0.39147154   -7.3552171     25.26596 
   16360    2.8562541   -7.7722782   0.37352499   -7.3561835   -1.9164576 
   16370     3.453246   -7.7654391   0.35632862   -7.3576432   -13.788154 
   16380    3.6207039   -7.7555289   0.34202307   -7.3595426   -59.260698 
   16390    3.1562467   -7.7416141   0.33272748   -7.3618457   -77.314192 
   16400    2.2292811   -7.7288671   0.33167031   -7.3639715   -108.19196 
   16410     1.440977   -7.7114422   0.32455091   -7.3654149   -115.20737 
   16420    1.3931927   -7.7179983   0.33081271   -7.3664214   -115.97308 
   16430     2.105551   -7.7253793   0.32640907    -7.367589   -109.00211 
   16440    2.9850609   -7.7506163   0.33686025   -7.3692665   -81.081156 
   16450    3.4272333    -7.759532   0.33682584   -7.3716265   -62.284766 
   16460    3.2173732   -7.7802572   0.35789293   -7.3744124   -23.599017 
   16470    2.4836412   -7.7824849   0.36841356    -7.377055   -9.1377744 
   16480    1.6526254   -7.7907601   0.38721169   -7.3789176    11.597356 
   16490     1.330531   -7.7860469   0.38583134   -7.3803853    5.6990846 
   16500    1.7984096   -7.7931719   0.38485607   -7.3815122   -8.4229736 
   16510    2.6750634   -7.7913188   0.36842893   -7.3830206   -31.925911 
   16520    3.2790564   -7.7860562   0.35210616   -7.3850788   -64.404268 
   16530     3.280958   -7.7729321    0.3365127   -7.3875198   -82.643486 
   16540    2.8185445   -7.7607435   0.32873065   -7.3900051    -109.1157 
   16550     2.182908   -7.7539112    0.3292349   -7.3921421   -110.30929 
   16560    1.6658281   -7.7485905   0.33011688   -7.3936461   -116.21925 
   16570    1.5165543   -7.7554429   0.33823593   -7.3946042   -99.330662 
   16580    1.7667879   -7.7657295   0.34390427    -7.395493   -82.429343 
   16590    2.0958333   -7.7815555   0.35385737   -7.3964617    -55.64346 
   16600    2.1209609   -7.7865184   0.35753807   -7.3973694   -24.963016 
   16610    1.8023096   -7.7914172   0.36645468   -7.3981008   -5.8066766 
   16620     1.428733   -7.7926149    0.3727875   -7.3985335    12.676038 
   16630     1.250402   -7.7973819   0.38002606   -7.3987198    3.7347618 
   16640    1.2996484    -7.795893   0.37794942   -7.3985735   -4.9907945 
   16650    1.5023313   -7.7932168   0.37255799    -7.398268   -36.053838 
   16660    1.6946302   -7.7823239   0.35942881   -7.3976382   -61.336151 
   16670    1.6905726   -7.7674967   0.34567985   -7.3966205   -90.159205 
   16680    1.4511239   -7.7464582   0.32940003   -7.3954305   -111.14828 
   16690    1.1712732   -7.7348224   0.32338273    -7.393983   -119.81357 
   16700     1.134221   -7.7294199   0.32017234   -7.3923431   -125.50135 
   16710    1.4717413   -7.7414661   0.32946859   -7.3900626   -109.23017 
   16720    2.1245917   -7.7539306   0.33583549   -7.3864301   -92.958141 
   16730    2.8936668   -7.7801168   0.35587796   -7.3811115   -55.073582 
   16740    3.4515588   -7.7919238   0.36571069   -7.3747709   -19.694429 
   16750    3.5201405   -7.8025461   0.38129505   -7.3687867    19.794456 
   16760    3.2637076   -7.7934659   0.38079861   -7.3640248    47.534214 
   16770    3.3001566   -7.7960518   0.38652662   -7.3603395    45.884161 
   16780    3.9226928   -7.7969784    0.3813882   -7.3571262    31.208425 
   16790    4.6547756   -7.7973332   0.37356476   -7.3543934   -16.968114 
   16800    4.8861105   -7.7874433   0.36220526   -7.3524152   -53.546216 
   16810    4.5043539   -7.7637166   0.34523715   -7.3513464   -104.00617 
   16820    3.8601112    -7.746359   0.33759026   -7.3512374   -130.79099 
   16830    3.3491835    -7.717978    0.3165897   -7.3514719   -152.11914 
   16840    3.2247397   -7.7171308   0.31728324   -7.3517859   -157.86521 
   16850    3.5648389   -7.7133374   0.30801786    -7.352189   -142.51686 
   16860     4.170176   -7.7416296   0.32659389   -7.3528832   -126.62917 
   16870    4.5631887   -7.7532745    0.3311099   -7.3541546   -77.318699 
   16880    4.2409806   -7.7786559   0.35930427   -7.3561439   -43.467797 
   16890    3.1876814   -7.7779658   0.37226504   -7.3581914    16.132306 
   16900    2.0401124   -7.7815943   0.39165475   -7.3595336    41.527927 
   16910    1.6212368   -7.7740388   0.38973175    -7.360144    64.300965 
   16920     2.243653   -7.7778257   0.38359327   -7.3607929    47.501533 
   16930    3.3820368   -7.7842253   0.37220456   -7.3616147    10.875377 
   16940    4.1392337   -7.7797648   0.35517985   -7.3628936   -31.274143 
   16950     3.973074    -7.768527   0.34455434   -7.3647577   -86.665298 
   16960    3.0740157   -7.7420816   0.32963813   -7.3666282   -112.18828 
   16970    2.0909933   -7.7269473    0.3275173   -7.3682657     -150.293 
   16980    1.6101079   -7.7120215   0.31880631   -7.3692181   -147.59775 
   16990    1.8730633    -7.717992   0.32012926   -7.3699465   -154.90553 
   17000    2.7149081   -7.7326641   0.32146784   -7.3707332   -128.95157 
   17010    3.6600914   -7.7585059   0.33200167   -7.3719541   -102.40917 
   17020    4.1396509   -7.7798349   0.34463626   -7.3735011   -61.191482 
   17030    3.8016318   -7.7920071    0.3595861   -7.3757613   -10.366643 
   17040    2.8607485    -7.798317   0.37748919   -7.3781911    20.562337 
   17050    2.0422092    -7.799044   0.38849743   -7.3801094    55.211884 
   17060    1.9938702   -7.8008364   0.38948216   -7.3816375    42.203987 
   17070    2.6616319   -7.8030266    0.3799817   -7.3833758    31.857478 
   17080    3.3430791   -7.7991393   0.36339714   -7.3859167   -17.189485 
   17090    3.3960876   -7.7906481   0.35067438   -7.3893582   -52.576714 
   17100    2.7467995   -7.7655309   0.33175827   -7.3928342   -93.385823 
   17110    1.8080924    -7.750865   0.32834198   -7.3955751   -122.22231 
   17120    1.0697846   -7.7327496   0.31954143    -7.397264    -131.8671 
   17130   0.81968362   -7.7393638   0.32894573   -7.3982014   -143.78118 
   17140    1.0864994   -7.7419956   0.32648101   -7.3993213   -121.74048 
   17150    1.6382922   -7.7641566   0.33933463   -7.4004048   -113.52221 
   17160    2.0753889   -7.7763768   0.34360744   -7.4018377   -70.131802 
   17170    2.0438825   -7.7903048   0.35648589   -7.4033567   -45.615477 
   17180    1.5097088   -7.7906347   0.36355274   -7.4045812    -2.301841 
   17190   0.83095487   -7.7880133   0.37025661   -7.4053721    18.688805 
   17200   0.46374219   -7.7914691   0.37892645   -7.4056311    27.755461 
   17210   0.61122347   -7.7881915   0.37334826   -7.4057335    22.688716 
   17220    1.1095975   -7.7942966   0.37204677   -7.4057124   -9.8793936 
   17230    1.6030551   -7.7809405   0.35165351   -7.4053949    -31.37909 
   17240    1.8016209   -7.7781218   0.34665746   -7.4046129   -78.492148 
   17250    1.6569006   -7.7541413   0.32599363   -7.4034531    -93.57228 
   17260    1.3754002   -7.7477609   0.32510086    -7.402161   -126.24178 
   17270    1.2303161   -7.7360497   0.31711474   -7.4005983     -125.516 
   17280      1.38137   -7.7469678   0.32784955   -7.3985302   -130.59463 
   17290     1.833117   -7.7567814   0.33416714   -7.3952934   -114.04298 
   17300    2.4594277   -7.7747508   0.34747549   -7.3906199   -85.962464 
   17310    3.0420014   -7.7909644   0.36106643   -7.3845598   -58.283666 
   17320    3.3042577   -7.7976458   0.37022831   -7.3781706   -7.8565164 
   17330    3.1518088   -7.7987524    0.3792082   -7.3725694    13.583139 
   17340    2.9470309   -7.7875098   0.37535051   -7.3682366    50.803093 
   17350    3.1885059   -7.7905591   0.37835544    -7.364682    34.709185 
   17360    3.8179774   -7.7886011   0.37027035   -7.3614274    23.099109 
   17370    4.2153227   -7.7838828    0.3623312   -7.3587262   -23.369571 
   17380    4.0536127   -7.7636306   0.34662166   -7.3565937   -61.874952 
   17390    3.5433346   -7.7399749   0.33192906   -7.3552358   -96.405392 
   17400    3.0191079   -7.7204163   0.32104785   -7.3543715   -130.51908 
   17410     2.712125   -7.7028007    0.3086983   -7.3536807   -132.38234 
   17420    2.7453864   -7.7037482   0.30980293   -7.3530279   -147.28794 
   17430    3.0950955   -7.7140338   0.31562924   -7.3522751   -120.00108 
   17440    3.4207108   -7.7368505    0.3344781     -7.35139   -110.31293 
   17450    3.3787301   -7.7541727   0.35308902   -7.3507269   -64.081823 
   17460    3.0061004   -7.7639715   0.36888993   -7.3502785   -32.087237 
   17470    2.6515756   -7.7737169   0.38439405   -7.3498036    6.6026414 
   17480    2.5841518   -7.7671505   0.37932438   -7.3493118    33.892148 
   17490    2.8904161   -7.7709424   0.37902209   -7.3488414    31.406175 
   17500    3.5207676   -7.7590812   0.35851895   -7.3480885    27.193725 
   17510    4.0450956   -7.7686777   0.36102341    -7.347366   -20.760128 
   17520    3.8707096   -7.7466376   0.34196592   -7.3469825    -44.88647 
   17530    3.0768987    -7.735428   0.34265908   -7.3469107   -95.487695 
   17540    2.4749999     -7.70832   0.32453602   -7.3468965   -110.64148 
   17550    2.6769639   -7.7102648    0.3238216   -7.3465456   -134.43928 
   17560    3.5540461   -7.7135231   0.31424156   -7.3463119   -133.69335 
   17570    4.6040623   -7.7292765   0.31461824   -7.3460391   -121.79562 
   17580    5.3836847   -7.7533259    0.3262521   -7.3468351   -106.47109 
   17590     5.433321   -7.7698836   0.33998571   -7.3489194   -66.653948 
   17600    4.5466191   -7.7892097   0.36903792   -7.3524087   -43.824621 
   17610    3.2465525   -7.7812886   0.37700185      -7.3559    1.3817247 
   17620    2.5017987   -7.7934985   0.39723582   -7.3589757    10.192787 
   17630    2.7865143   -7.7877146   0.38411712   -7.3620671    23.190918 
   17640    3.5616323   -7.7981495   0.37928115   -7.3657856    3.9395448 
   17650    4.0215354   -7.7828777   0.35209171   -7.3708488   -18.115528 
   17660    3.8091318   -7.7780898   0.34452539   -7.3767929   -47.482554 
   17670    3.0130866   -7.7596827   0.33260444   -7.3821711   -80.064893 
   17680    1.9894462   -7.7469694   0.33128425   -7.3860343   -95.009005 
   17690    1.2565181   -7.7360408   0.32916138   -7.3881522   -113.31441 
   17700     1.194312    -7.737812   0.33055762   -7.3894543   -106.98188 
   17710    1.6595186   -7.7499882   0.33459753   -7.3906572   -104.02603 
   17720    2.1199324   -7.7589617   0.33544167   -7.3919244   -81.391519 
   17730    2.1570297   -7.7683516   0.34315659   -7.3930465      -59.145 
   17740    1.7477565   -7.7726035   0.35261008   -7.3939448    -34.55337 
   17750    1.1291518   -7.7783617   0.36737373    -7.394159   -9.9647864 
   17760   0.64960916   -7.7819383    0.3780456   -7.3942109    -2.355725 
   17770   0.68404839   -7.7863972   0.38210514    -7.394097    4.4220497 
   17780    1.3602694   -7.7936976    0.3797105   -7.3937136   -14.997352 
   17790    2.2695537   -7.7917171   0.36506745   -7.3928241   -30.879573 
   17800     2.765514   -7.7817506   0.34900953   -7.3915237   -60.982387 
   17810     2.560671   -7.7594263    0.3313401   -7.3899218   -82.582292 
   17820    1.9230369   -7.7414196    0.3241003   -7.3886583   -100.73332 
   17830    1.3276797   -7.7290493   0.32158504   -7.3876765   -114.05623 
   17840    1.1360964    -7.727808   0.32406871   -7.3868069   -108.25106 
   17850    1.5689589   -7.7436119   0.33453249   -7.3856956   -105.32893 
   17860    2.5325624   -7.7631093   0.34149959   -7.3838643   -76.499457 
   17870    3.4845811   -7.7891227   0.35606657   -7.3811218   -56.902624 
   17880    3.7572216   -7.7907913   0.35649625   -7.3782973     -18.3909 
   17890    3.2356241   -7.7960187   0.37156241   -7.3762324    2.7466448 
   17900    2.4721349   -7.7829605   0.37122866    -7.374887    18.452782 
   17910    2.0385974    -7.787334   0.38311747   -7.3738332     16.79003 
   17920    2.1362953   -7.7782691   0.37361047   -7.3728192   -6.5077932 
   17930    2.5732719   -7.7831565    0.3731757   -7.3716286   -29.645806 
   17940    2.9590584   -7.7696345   0.35505592   -7.3704766   -72.582514 
   17950    2.9186886   -7.7534158   0.34069227   -7.3692232   -93.575319 
   17960     2.364058   -7.7255058   0.32205197   -7.3682198   -123.99274 
   17970    1.6698496   -7.7046539   0.31231823   -7.3674481   -128.62318 
   17980    1.3356336    -7.700906   0.31409479   -7.3669048    -131.7832 
   17990    1.5685831   -7.7065538   0.31705182   -7.3661237   -118.60231 
   18000    2.1740854   -7.7325735   0.33520645   -7.3649643   -89.919695 
   18010    2.7164415   -7.7501326   0.34639107   -7.3632556   -62.339139 
   18020    2.7754429   -7.7721814   0.36920397   -7.3616121   -12.682855 
   18030    2.1809352   -7.7634012   0.37068169   -7.3602147    13.010063 
   18040    1.3109058    -7.758812    0.3800737   -7.3592005    47.690672 
   18050   0.94263474    -7.745188   0.37265008   -7.3584889    38.743822 
   18060    1.4480857   -7.7543486   0.37517929    -7.357587    23.082317 
   18070    2.4559303   -7.7543631   0.36179792   -7.3559618    -17.64498 
   18080    3.2870673   -7.7594174   0.35691958   -7.3535072    -64.24655 
   18090    3.5880479   -7.7459004   0.34149757   -7.3509264   -97.467508 
   18100    3.3845954   -7.7305713   0.33140018   -7.3487269   -140.24069 
   18110    2.9185699   -7.7065415   0.31587591   -7.3471671    -142.6298 
   18120    2.5864388   -7.6943839   0.31000573   -7.3458298   -162.79453 
   18130    2.7378306   -7.6962278    0.3108755   -7.3445475   -134.93893 
   18140    3.4534568   -7.7151206   0.32052905   -7.3431211   -123.18882 
   18150    4.3239046   -7.7428002   0.33675438   -7.3416022   -72.682778 
   18160    4.6686582   -7.7699448   0.35984793    -7.340515   -28.900674 
   18170    4.1983208   -7.7866081   0.38385917   -7.3401769    19.901421 
   18180    3.3731368   -7.7882235   0.39760699   -7.3403431    64.477267 
   18190    3.0402627   -7.7836901   0.39776806   -7.3406098    65.016909 
   18200    3.5375343   -7.7814601   0.38786628   -7.3408702    63.559314 
   18210    4.3247536   -7.7797783   0.37393772   -7.3413842    3.1105968 
   18220    4.5227313   -7.7657216   0.35565723   -7.3426573   -30.211517 
   18230    3.7395176   -7.7408501   0.34067393   -7.3444422   -95.126607 
   18240       2.3697   -7.7090676   0.32788421   -7.3458652   -120.85269 
   18250    1.1342088   -7.6871949   0.32365561    -7.346635   -151.74865 
   18260    0.6293677   -7.6708215   0.31457681   -7.3468646   -159.09999 
   18270    1.0543444   -7.6793593   0.31680782   -7.3468375   -147.40161 
   18280    2.1604752   -7.6943014   0.31548732   -7.3466142   -135.46972 
   18290    3.3796438   -7.7290802   0.33260564   -7.3461042   -84.409574 
   18300    3.9852432   -7.7456882   0.34099338   -7.3452986   -51.543168 
   18310    3.5172327   -7.7661344   0.36894487   -7.3447685    19.020362 
   18320    2.2804161   -7.7613176   0.38277428   -7.3445559    48.966538 
   18330    1.3335862   -7.7691017    0.4049875   -7.3442384    83.055314 
   18340    1.6528921   -7.7637772   0.39547634   -7.3436661    69.235841 
   18350    3.1102918   -7.7752063   0.38667897   -7.3421714    33.172092 
   18360    4.6302545   -7.7679377   0.35983916    -7.339089   -14.276531 
   18370    5.2529575   -7.7540947   0.34081468   -7.3349897   -81.704332 
   18380    4.9029816   -7.7256138   0.32144612   -7.3310934   -113.30064 
   18390     4.162993   -7.6999564   0.31015526   -7.3277557   -165.60887 
   18400    3.6826965   -7.6927451   0.31314675   -7.3247112   -165.10328 
   18410    3.9209532    -7.690593   0.31044686    -7.321708   -183.55427 
   18420    4.9836117   -7.7169079   0.32453546   -7.3180965   -154.78615 
   18430    6.4623201   -7.7346431   0.32422997   -7.3140984   -129.69835 
   18440    7.3886451   -7.7687952   0.34760032   -7.3110742   -79.679759 
   18450    6.7774433   -7.7612113   0.34937439   -7.3108256   -12.286509 
   18460    4.7567237   -7.7565791   0.37294226   -7.3127424    36.767195 
   18470    2.7763614   -7.7349398   0.37885992   -7.3147009    95.151976 
   18480    2.2592584   -7.7487172   0.39890023   -7.3161448    82.542129 
   18490     3.340648   -7.7571673   0.38961698   -7.3177611    74.530397 
   18500    4.9144901   -7.7703084   0.37637074   -7.3206918    5.1259574 
   18510    5.6166128    -7.759326   0.34991393   -7.3257018   -39.457865 
   18520    4.8443491   -7.7317375   0.32741957   -7.3321175   -100.17258 
   18530     3.207749   -7.6953141   0.30967815   -7.3378275   -134.77738 
   18540    1.7637878   -7.6666418   0.29894355   -7.3414106   -153.43512 
   18550    1.1071519   -7.6634432   0.30374056   -7.3432016   -167.38067 
   18560    1.2382361   -7.6763656   0.31361343   -7.3442974   -147.12811 
   18570     1.860022   -7.7023581   0.32903528    -7.345601   -137.20798 
   18580    2.6223044   -7.7286205   0.34232015   -7.3472174   -87.257418 
   18590    3.0714754   -7.7501752   0.35527153   -7.3491263   -55.667701 
   18600    2.8305825    -7.758414   0.36519262   -7.3510342   0.89083573 
   18610    2.1754512   -7.7537092   0.36891931   -7.3523668    32.890363 
   18620    1.9110107   -7.7555757   0.37372892    -7.353365    52.938236 
   18630    2.4438868   -7.7661482    0.3755067   -7.3542176    46.398377 
   18640    3.2611168   -7.7769435   0.37312121   -7.3552184    9.7412377 
   18650    3.6525755   -7.7727647   0.36173953   -7.3565871   -23.535483 
   18660     3.445414   -7.7516083   0.34199465    -7.358263   -75.795987 
   18670    2.8369887   -7.7301281   0.32805132   -7.3597942   -101.29408 
   18680    2.1889862   -7.7016299   0.30800612    -7.360999   -132.94793 
   18690    1.9817979   -7.6981759   0.30681479   -7.3618242   -137.39828 
   18700    2.5025635   -7.7023046   0.30244752   -7.3625587   -137.32104 
   18710    3.4786988    -7.741598   0.32628597   -7.3634653   -123.77437 
   18720    4.2537951   -7.7651535   0.33683065   -7.3649241   -92.294609 
   18730    4.3848616   -7.7969119   0.36436289   -7.3671969   -63.761824 
   18740    3.8949123   -7.7986498   0.37047849   -7.3701213   -16.539732 
   18750    3.0780478   -7.8022905   0.38330963   -7.3731055    5.5607054 
   18760    2.3361982   -7.7868888    0.3764397   -7.3756303    32.271138 
   18770    2.0527581   -7.7773177   0.36902351   -7.3776998    24.447381 
   18780     2.293644   -7.7766057   0.36272414    -7.379697    8.5982099 
   18790    2.5566195   -7.7739734   0.35376344    -7.382106   -24.093289 
   18800    2.3424026    -7.772341   0.35288589   -7.3845439   -60.570947 
   18810    1.7762972   -7.7500359   0.33679641   -7.3867655   -84.373909 
   18820    1.3157708   -7.7439596   0.33601726    -7.388332   -112.06538 
   18830    1.1734139   -7.7278568   0.32065212    -7.389716   -113.72698 
   18840    1.2554682   -7.7327578    0.3232998   -7.3907464   -120.22521 
   18850    1.4587657   -7.7313832   0.31781657   -7.3918251   -100.91243 
   18860    1.6542334   -7.7506829   0.33311407   -7.3929141   -85.694248 
   18870    1.5958564    -7.763769   0.34602777   -7.3939565   -56.921509 
   18880    1.1633104   -7.7773577   0.36538142   -7.3946382   -28.939663 
   18890   0.64259879   -7.7816901   0.37707494   -7.3950378   -8.0984513 
   18900   0.53516639   -7.7843775   0.38118735    -7.395214    9.7870991 
   18910   0.98216303    -7.786898   0.37705716   -7.3952026    2.7136815 
   18920    1.6857495   -7.7821361   0.36182901   -7.3951826   -3.7842005 
   18930    2.2923103   -7.7785155   0.34974625   -7.3946045   -33.312447 
   18940    2.5747357   -7.7710317   0.33917074    -7.393487   -55.683551 
   18950    2.4320004   -7.7631452   0.33495572   -7.3919429   -84.264824 
   18960    1.9764539   -7.7523938   0.33288826   -7.3900483   -103.34079 
   18970    1.6332169    -7.743047   0.33045017   -7.3882553   -110.58366 
   18980    1.8354636   -7.7476767   0.33400868   -7.3863121   -116.98953 
   18990     2.572368   -7.7524478   0.33122543   -7.3828837   -98.739155 
   19000    3.4262508   -7.7658696   0.33683078   -7.3779738   -88.073994 
   19010    3.9805304   -7.7713597   0.34018845   -7.3718452   -50.984055 
   19020    4.0599058    -7.783697   0.35753573   -7.3656522   -30.190046 
   19030    3.6908639    -7.788001   0.37254213     -7.36045    1.4178525 
   19040    3.1855058   -7.7875591   0.38381342   -7.3562688    13.855092 
   19050    3.1488268   -7.7896729   0.38992482   -7.3528178     10.80248 
   19060    3.7959758   -7.7816366   0.37573482   -7.3493264  -0.57018844 
   19070    4.5278391   -7.7765241   0.36335116   -7.3456898   -38.958477 
   19080    4.5642655   -7.7404253   0.32979824    -7.342601   -56.505289 
   19090    3.8380425   -7.7212116   0.32359982   -7.3404094   -99.990782 
   19100    2.8863952   -7.6885439   0.30629024   -7.3392347   -107.11509 
   19110    2.1439819   -7.6893589   0.31908836   -7.3383165    -131.9484 
   19120    1.9454437   -7.6810804   0.31477419   -7.3373112   -121.93418 
   19130    2.5514787   -7.7069453   0.33274672   -7.3361712   -114.83285 
   19140    3.7316367   -7.7253568    0.3349469   -7.3347933   -91.741615 
   19150    4.6218023    -7.747095      0.34543   -7.3327814   -53.103586 
   19160    4.4888757   -7.7496256   0.35144785   -7.3312754   -27.346045 
   19170    3.4810239    -7.743405   0.36099188   -7.3305317    17.460217 
   19180    2.2781636   -7.7425178   0.37847422   -7.3300897    17.374127 
   19190    1.5127362   -7.7307691   0.37851302   -7.3297102    31.621805 
   19200    1.5539294   -7.7364865   0.38413251   -7.3291941   -3.3498316 
   19210    2.3291871   -7.7267194   0.36378467   -7.3282204   -25.833483 
   19220       3.2469   -7.7289982   0.35407266   -7.3265336   -69.450948 
   19230    3.6595483   -7.7038128   0.32489289   -7.3243778   -103.01844 
   19240    3.4833795   -7.6907814   0.31661381   -7.3222512   -122.33224 
   19250    3.0912974   -7.6736273   0.30722162   -7.3203328   -147.86421 
   19260    2.8059857   -7.6748679    0.3145188   -7.3185286   -134.05099 
   19270    2.8514128   -7.6791164   0.31999939   -7.3166194   -139.09203 
   19280    3.3817245   -7.6955742   0.33103089   -7.3141419   -95.005072 
   19290    4.1899662   -7.7162384   0.34265918   -7.3111317   -72.565464 
   19300     4.594386   -7.7275713   0.35126946   -7.3078269   -13.975015 
   19310    4.2058092   -7.7267468   0.35946949   -7.3045937    26.086081 
   19320    3.7121091   -7.7279242   0.37047293   -7.3021258    55.554606 
   19330    4.0082825   -7.7414014   0.38216135   -7.2995004    67.039457 
   19340    5.1404771   -7.7641819    0.3911968   -7.2963712    29.373189 
   19350    6.5785204   -7.7709918    0.3795844   -7.2933608    6.2181835 
   19360    7.7071101   -7.7754532   0.36875964   -7.2918264   -65.667615 
   19370    7.9710294   -7.7543814   0.34178978    -7.293791   -90.370381 
   19380    7.2348326   -7.7360277   0.32807572   -7.3001236   -144.72748 
   19390    6.0598292   -7.7081382   0.30819108   -7.3096311   -150.07089 
   19400    5.1434925   -7.7076042   0.31031353   -7.3206318   -163.25638 
   19410    4.7401666   -7.7171612   0.31426265   -7.3322509   -152.24212 
   19420    4.6606585    -7.740675   0.32697108   -7.3442412     -123.653 
   19430    4.6105538   -7.7664817   0.34237916   -7.3553866   -99.254809 
   19440    4.3215496   -7.7835261   0.35409923   -7.3650182   -42.334888 
   19450     3.601566    -7.798172   0.37217689   -7.3723172   -15.862567 
   19460    2.5971709   -7.7866329   0.37105314   -7.3768714    36.774953 
   19470     1.877734   -7.7890977   0.38187978    -7.379232    38.772106 
   19480    1.8819688   -7.7825717   0.37380038   -7.3807224    44.727103 
   19490    2.3467906   -7.7983509   0.38122184   -7.3821523    9.0998041 
   19500    2.6261766   -7.7858708   0.36338677   -7.3833433   -26.143269 
   19510    2.3729627   -7.7786888   0.35899074   -7.3843313   -65.090892 
   19520    1.7039173   -7.7484213   0.33805366   -7.3849724   -106.50714 
   19530   0.95366412   -7.7301431   0.33071914   -7.3852105   -122.08558 
   19540   0.49383552   -7.7090188   0.31647489   -7.3851838   -146.86822 
   19550   0.61421253   -7.7094694   0.31527245   -7.3850427   -133.90349 
   19560     1.357886   -7.7261745    0.3213739   -7.3845626   -133.41927 
   19570    2.3949157   -7.7523907   0.33340236   -7.3832944   -97.676196 
   19580    3.1542221   -7.7808167   0.35260235   -7.3812036   -67.658153 
   19590    3.2134182   -7.7926629   0.36592799   -7.3788419   -21.377132 
   19600    2.6111837    -7.800237   0.38459746   -7.3767223    21.695237 
   19610    1.8860451   -7.7881579    0.3850887   -7.3749594    45.016351 
   19620     1.771041    -7.785928   0.38609236     -7.37344    61.079446 
   19630    2.6127118   -7.7831452   0.37297813   -7.3712271    30.470039 
   19640    3.9675564   -7.7952046   0.36815801    -7.367914    2.7747334 
   19650    4.9209272   -7.7902205   0.35297607   -7.3639027   -56.319811 
   19660    4.9513678   -7.7785081   0.34443199   -7.3602806   -92.271815 
   19670     4.304897   -7.7526726   0.33063382   -7.3578784   -132.70445 
   19680    3.5808966   -7.7350241   0.32546772   -7.3561865   -153.60093 
   19690    3.2516969   -7.7203754   0.31665997    -7.355252   -157.71065 
   19700    3.4871738   -7.7234352    0.3171813   -7.3542809   -157.05827 
   19710    4.1607436   -7.7367402   0.32129652   -7.3534317   -124.54824 
   19720    4.8112045   -7.7634123   0.33869406   -7.3530118   -100.78127 
   19730    4.8100231   -7.7790628   0.35411881   -7.3532552   -41.710865 
   19740    3.8677232   -7.7885051   0.37659797   -7.3542624   -3.3379119 
   19750    2.4672326   -7.7806737   0.38852736   -7.3553746    46.082973 
   19760    1.5722582   -7.7769503   0.39757247   -7.3559448    61.018638 
   19770    1.7479479   -7.7674212   0.38517969     -7.35619    56.012942 
   19780    2.6709438   -7.7677709   0.37160471   -7.3563583    27.645104 
   19790    3.5099886   -7.7611909   0.35237302   -7.3565049   -24.031189 
   19800    3.6301109   -7.7519779   0.34073893   -7.3571356   -63.938947 
   19810    3.0119714   -7.7309486   0.32829515   -7.3577629   -113.20059 
   19820    2.1196411   -7.7114201   0.32161807   -7.3582108   -131.64384 
   19830    1.5068446   -7.7023015   0.32139942    -7.358444   -153.22049 
   19840    1.4884616   -7.7013072   0.32068777   -7.3584354   -147.16644 
   19850    2.0537777   -7.7169493   0.32817862   -7.3581611   -135.04316 
   19860    2.9361713   -7.7319658   0.33086079   -7.3573442   -107.22905 
   19870    3.7290129    -7.763564    0.3517312   -7.3562554   -65.480834 
   19880    4.0738874   -7.7770427   0.36123854   -7.3550867   -25.941602 
   19890    3.9298351   -7.7983052   0.38551807   -7.3542167    22.827965 
   19900    3.6969272   -7.7963481   0.38772087   -7.3535281    43.933033 
   19910    3.8829171   -7.8110554   0.39993011   -7.3532541    53.506464 
   19920    4.4920931   -7.8018237   0.38170979   -7.3531635    29.946557 
   19930    4.9575618   -7.7982551   0.37066017   -7.3537072   -6.3713301 
   19940    4.7725897   -7.7706812   0.34401587   -7.3555345   -47.079692 
   19950    4.0258145    -7.751603   0.33347253   -7.3581295   -92.008585 
   19960    3.2512466   -7.7298502   0.32040917   -7.3609843   -113.94946 
   19970    2.8837413   -7.7246445   0.31796982   -7.3636953   -139.22432 
   19980    2.9712118   -7.7336494   0.32284315   -7.3665232    -134.4403 
   19990    3.2424556   -7.7475153   0.32951925   -7.3696704   -132.92636 
   20000    3.3357775    -7.766115   0.34308208   -7.3733164    -107.1294 
Loop time of 0.688201 on 1 procs for 20000 steps with 6 atoms

Performance: 2510.895 ns/day, 0.010 hours/ns, 29061.279 timesteps/s
69.8% CPU use with 1 MPI tasks x no OpenMP threads

MPI task timing breakdown:
Section |  min time  |  avg time  |  max time  |%varavg| %total
---------------------------------------------------------------
Pair    | 0.05487    | 0.05487    | 0.05487    |   0.0 |  7.97
Bond    | 0.0064819  | 0.0064819  | 0.0064819  |   0.0 |  0.94
Kspace  | 0.28552    | 0.28552    | 0.28552    |   0.0 | 41.49
Neigh   | 0.021605   | 0.021605   | 0.021605   |   0.0 |  3.14
Comm    | 0.035972   | 0.035972   | 0.035972   |   0.0 |  5.23
Output  | 0.24943    | 0.24943    | 0.24943    |   0.0 | 36.24
Modify  | 0.022886   | 0.022886   | 0.022886   |   0.0 |  3.33
Other   |            | 0.01143    |            |       |  1.66

Nlocal:    6 ave 6 max 6 min
Histogram: 1 0 0 0 0 0 0 0 0 0
Nghost:    156 ave 156 max 156 min
Histogram: 1 0 0 0 0 0 0 0 0 0
Neighs:    125 ave 125 max 125 min
Histogram: 1 0 0 0 0 0 0 0 0 0

Total # of neighbors = 125
Ave neighs/atom = 20.8333
Ave special neighs/atom = 2
Neighbor list builds = 2000
Dangerous builds = 0
Total wall time: 0:00:00
