LAMMPS (16 Mar 2018)
# some global params
units real
boundary p p p #all periodic
atom_style full #bonds, bends, torsions, etc
timestep 1.000000 # femtoseconds (1e-15 s)

# the atoms file
#read_restart water_pair.restart
read_data water_pair.xyz
  orthogonal box = (-5 -5 -5) to (5 5 5)
  1 by 1 by 1 MPI processor grid
  reading atoms ...
  6 atoms
  scanning bonds ...
  2 = max bonds/atom
  scanning angles ...
  1 = max angles/atom
  reading bonds ...
  4 bonds
  reading angles ...
  2 angles
  2 = max # of 1-2 neighbors
  1 = max # of 1-3 neighbors
  1 = max # of 1-4 neighbors
  2 = max # of special neighbors
#replicate 10 10 10

# methods for potential/force calculations
kspace_style ewald/disp 1.0e-6
pair_style lj/cut/coul/long 10

# pair_characterization eps sigma cut_1 cut_2
pair_coeff 2 2 0 0.898 2.7 #H-H sigma = 2*r_min
pair_coeff 1 2 0 0.4 2.7 #O-H Mixing rules were RMS
pair_coeff 1 1 0.1521 3.166 9.45 #O-O  Parameters from Jorgensen, cutoff is 3*sig

bond_style harmonic
bond_coeff 1 669.13 1.0

angle_style harmonic
angle_coeff 1 0 109.5

#fix ID group-ID restrain angle atom1 atom2 atom3 Kstart Kstop theta
fix holdit1 all restrain angle 2 1 3 100 2000 109.5
fix holdit2 all restrain angle 5 4 6 100 2000 109.5

# velocity all create 298 3

dump Dump all xyz 10 lammps_traj.xyz
dump_modify Dump sort id
dump_modify Dump element  O H
dump_modify Dump pbc yes

dump Dumplammps all atom 100 dump.lammps

restart 10 water_pair.1.restart water_pair.restart

thermo_style one #print to terminal
thermo 10

#velocity all create 100 12345 rot yes mom yes dist gaussian
fix 2 all nvt temp 2.98 2.98 1000 #iso 10 10 1000 random_number atoms_assigned ensemble thermostat start_temp end_temp gradient_step
#fix 3 all rigid/nvt molecule temp 293 293 100

run 20000
EwaldDisp initialization ...
  G vector = 0.311077   accuracy = 0.000332064
Neighbor list info ...
  update every 1 steps, delay 10 steps, check yes
  max neighbors/atom: 2000, page size: 100000
  master list distance cutoff = 12
  ghost atom cutoff = 12
  binsize = 6, bins = 2 2 2
  2 neighbor lists, perpetual/occasional/extra = 2 0 0
  (1) pair lj/cut/coul/long, perpetual
      attributes: half, newton on
      pair build: half/bin/newton
      stencil: half/bin/3d/newton
      bin: standard
  (2) pair lj/cut/coul/long, perpetual, copy from (1)
      attributes: half, newton on
      pair build: copy
      stencil: none
      bin: none
  vectors: nbox = 4, nkvec = 128
Per MPI rank memory allocation (min/avg/max) = 15.36 | 15.36 | 15.36 Mbytes
Step Temp E_pair E_mol TotEng Press 
       0            0    4.9417819            0    4.9417819    307.88528 
      10    1258.0314    3.6373158   0.33501721    22.722096    2443.5007 
      20    797.28744    3.5380327    1.3652656     16.78611   -2078.0023 
      30    356.08435    4.0817949   0.65388737    10.042781    -1505.836 
      40    1204.5199     2.884956    2.3498689     23.18705    4452.3929 
      50    195.32341     2.435704   0.23734624    5.5841601   -942.56968 
      60    851.74715    2.6829712   0.29753166    15.674985   -639.27887 
      70    658.77543    2.4020545  0.094907354    12.315384   -198.64993 
      80    262.80572    1.7892336   0.00676683    5.7128701      387.389 
      90    912.76411    1.6936154   0.61128823    15.908786     2464.743 
     100    102.28839    1.8669842    0.7588973    4.1503928   -1990.9524 
     110    795.10368    1.5214797   0.11169229    13.483437   -188.36159 
     120    238.72254    1.3462861  0.016607643    4.9208265    471.58331 
     130    458.07219    1.3299813   0.34193947    8.4990518    1693.3056 
     140    426.99535    1.3191923   0.10837344    7.7915259    -454.9267 
     150    233.79678    1.2379603   0.58709722    5.3095765   -1656.8794 
     160    480.77567    1.1148954   0.15739307    8.4377932    1265.0285 
     170    99.440658    1.1201992   0.17728101    2.7795488    1071.2245 
     180    479.12751     1.105021  0.021586996    8.2675485    31.107919 
     190    51.205054    1.1103009   0.58893253    2.4623962   -1789.9527 
     200    421.41916    1.0269272   0.11861968    7.4263993    1102.1458 
     210    33.077772     1.031502   0.18385316    1.7083479    1043.2702 
     220     370.2603    1.0401654 0.0089455349    6.5674891    73.098762 
     230    24.438706    1.0670303   0.43970235    1.8709684   -1555.1999 
     240    318.07414    1.0135221  0.053193018    5.8073081     766.2124 
     250    19.649188    1.0178896     0.186534     1.497276    1040.5116 
     260    274.42767    1.0383927   0.00110584    5.1295824    160.88357 
     270    22.938343    1.0710907   0.31892113    1.7318861   -1317.1398 
     280    223.49219    1.0352454  0.011301449    4.3774856    409.57111 
     290    41.167117    1.0362913   0.18256226    1.8324104    1044.5551 
     300    163.18313    1.0633228 0.0018187964    3.4972311     223.5715 
     310    79.520221    1.0896936   0.18890268    2.4637696   -964.51254 
     320    90.324934    1.0680495  0.002428329    2.4166852   -34.932375 
     330    123.87102    1.0584159   0.17125297    3.0758487    1070.3855 
     340     28.24327    1.0946707 0.0050982932    1.5207081    204.11842 
     350    149.14861    1.1103127  0.076255794    3.4094869   -537.26223 
     360    8.5125123    1.0939501  0.017929192    1.2387502   -295.34151 
     370    118.85472    1.0746341  0.093644893    2.9396957    815.99794 
     380    48.318545    1.1104532  0.013999186    1.8445944    326.61407 
     390    46.231882    1.1361094  0.039463992    1.8646157   -422.59599 
     400    105.25828    1.1099524 0.0024215744    2.6811487   -22.579133 
     410   0.53275482    1.0860532  0.028130983    1.1221244     411.4974 
     420    97.664777    1.1042975 0.0074362727    2.5673346      282.406 
     430    38.250603    1.1406569  0.026358536    1.7371044   -341.87619 
     440    26.793572    1.1301581 0.00027551856    1.5297664    31.856066 
     450    88.474813     1.094526   0.06420551    2.4773645    672.71733 
     460    9.2624946    1.0974653 0.00069345049    1.2362075    76.456137 
     470     48.29065    1.1189671  0.052518026    1.8912114   -494.62153 
     480    67.909848    1.1173325 0.0013348067    2.1307991    -16.47328 
     490    1.3433137    1.1008287  0.075278337    1.1961279    662.62153 
     500    56.389644    1.0965059    0.0304605    1.9674005    465.48542 
     510    51.241527    1.1052147  0.033502862    1.9024238   -382.73525 
     520    2.8788306    1.0953021  0.028933923    1.1671422   -385.05815 
     530    50.829852    1.0730628  0.026036468    1.8566699    430.62269 
     540    47.510839    1.0775461  0.033910529    1.8195605    482.26318 
     550    2.5270656    1.0949442 0.0041928357    1.1368005    -132.9329 
     560    40.033521    1.0850092 0.0027120155    1.6843828   -79.721481 
     570    49.373421    1.0585374  0.020905929    1.8153073    388.77933 
     580    6.2216908    1.0546172 0.0061139691    1.1534596    204.44123 
     590    22.802578    1.0684559  0.021067147    1.4293739   -312.07764 
     600    50.172149    1.0657062 0.0074307448    1.8209052   -154.12064 
     610    18.772773    1.0476317  0.034805727    1.3622278    467.77794 
     620    5.9743511     1.043172  0.043958773    1.1761728    513.21201 
     630    38.013589    1.0535728 0.0014489043    1.6215781   -48.550783 
     640    36.457698    1.0519934  0.014507239     1.609868   -243.62222 
     650     6.797551    1.0346364 0.0025764177    1.1385239    139.14878 
     660    12.062715    1.0292563  0.010112815    1.2191524    260.09533 
     670    37.443827    1.0409363 0.0029866062    1.6019876   -88.398145 
     680    27.923449    1.0428704 0.0040095988    1.4630525   -114.48479 
     690    5.0901925    1.0284735  0.021852674    1.1261907    367.24113 
     700      10.3128    1.0226747  0.041414792     1.217792    501.31367 
     710    31.456905    1.0334359 6.4117042e-05    1.5023353    25.597003 
     720    27.452086    1.0375152  0.013145879    1.4598084   -236.80288 
     730    8.0676483    1.0254225 0.00050976825    1.1461729    73.331835 
     740    3.6861952    1.0198254 0.0087430549    1.0835077    237.97232 
     750    20.245964     1.030457  0.001620316    1.3338241    -65.37668 
     760     28.07053    1.0357222 0.0068967244    1.4609836   -162.13882 
     770    17.777679    1.0254575 0.0095654515    1.2999824    257.34776 
     780    2.9897109    1.0200637  0.039362751    1.1039852    484.44013 
     790    4.8695211    1.0301913 0.0031973642    1.1059643    151.10859 
     800    16.626377    1.0369378 0.0026168439     1.287355   -94.362735 
     810    24.176228     1.028521 0.0027603636    1.3916051    154.83265 
     820    16.856096    1.0230197  0.013433761    1.2876776    300.02011 
     830    5.8405796    1.0328386 0.00081734355    1.1207042   -47.080556 
     840   0.71983221    1.0407335  0.017397909    1.0688599   -296.58901 
     850    7.3043422    1.0332843 0.0001248647    1.1422734   0.15084797 
     860    15.698999    1.0265821  0.013109877    1.2736706    295.95598 
     870    19.700237    1.0342811 0.0013578763    1.3292523    115.66817 
     880    14.388586    1.0419527 0.0019208334    1.2583218   -77.158832 
     890    6.7066415     1.035783 0.0045805218    1.1403197    179.44772 
     900   0.71251906    1.0288514  0.032031347    1.0715021    437.27169 
     910    1.8814666    1.0346631 0.0081736316    1.0708783    229.98111 
     920    6.6658339    1.0408416 0.00057915604    1.1407687   -35.497022 
     930    13.207017    1.0321097 0.0017408615    1.2306886    122.81098 
     940    16.093784    1.0173771   0.01678971    1.2740294     331.2168 
     950     16.31448    1.0058404 0.0014417844     1.250434    115.38327 
     960    13.856138   0.97683181 0.0075466845    1.1908911    -182.0991 
     970    14.156319    0.8948801 0.0015156244    1.1073822   -69.684683 
     980    20.337755   0.72872444  0.002933623     1.034773    144.94171 
     990    39.060362   0.41969977 0.0011943992    1.0030518    -25.48445 
    1000     72.90155  -0.12028782  0.024328129   0.99056867   -316.57964 
    1010    120.56806   -0.8760816  0.021201193   0.94207203   -241.24368 
    1020    163.37016   -1.6086867  0.011916645   0.83810703   -21.366022 
    1030    181.18729   -2.0476375  0.014756311   0.66754319   -113.36753 
    1040    174.22366   -2.1906475  0.030234447   0.43622518   -319.85028 
    1050    160.06583   -2.2274013  0.014530124   0.17275796   -200.66004 
    1060    146.82793   -2.2864638 0.0018483029 -0.096284592    48.304158 
    1070    133.52527   -2.3569021 0.00036456902  -0.36647019   -15.277686 
    1080    115.29987   -2.3447597  0.011781288  -0.61454338   -232.02295 
    1090    92.810973   -2.2010145 0.0056438701  -0.81211122   -168.77742 
    1100    70.330909   -2.0059739 0.00087046976  -0.95688808    56.290303 
    1110    53.602545    -1.871912 0.0015635099   -1.0714535    32.279924 
    1120    43.822214   -1.8233025 0.0049848443   -1.1651892   -163.90382 
    1130    38.435286   -1.8093695 0.0026439405   -1.2338841   -142.34082 
    1140    33.003888   -1.7746022 0.0011739609   -1.2815366    50.864824 
    1150     25.26275   -1.6996285 0.0016726691   -1.3214385    47.053933 
    1160    16.360511    -1.597309 0.0019386085   -1.3515325   -128.88993 
    1170    9.3920132   -1.5039938 0.0014695238   -1.3625452   -125.65011 
    1180    6.9923369   -1.4689674 0.0015248454   -1.3632285    49.183132 
    1190    10.265967   -1.5291058 0.0022753071    -1.373826    55.828221 
    1200    18.697711   -1.6825468 0.0017562394   -1.4021189   -120.65476 
    1210    29.428147   -1.8822703 0.0031899389   -1.4404818   -156.07334 
    1220    38.349279   -2.0584975 0.0013619371    -1.485576   -12.187322 
    1230    41.700663   -2.1638961 0.0021787157   -1.5402086    9.0894661 
    1240    40.487258   -2.2061337  0.002857257   -1.5998523   -139.47106 
    1250    39.140425     -2.23917 0.0041647901   -1.6516544   -173.32218 
    1260    41.652132   -2.3231942 0.0016397584    -1.700769   -38.296451 
    1270    47.585763   -2.4732862 0.0015330863   -1.7625326   -6.9463039 
    1280    53.320902   -2.6366993 0.0026804644   -1.8393215   -144.43589 
    1290    54.268996   -2.7280554 0.0050674266   -1.9141602   -192.47039 
    1300    49.608645   -2.7178811 0.0012512398   -1.9772601    -71.08903 
    1310    42.305153   -2.6619752 0.00029907505    -2.031158   -20.093597 
    1320    36.861502   -2.6302982 0.0016030588   -2.0793095   -132.37648 
    1330    34.947385   -2.6432348 0.0039088964   -2.1184683   -192.70683 
    1340      35.3451   -2.6779812 0.00060102967   -2.1505951   -102.85077 
    1350    34.634045   -2.6977169 0.0003271878   -2.1812021   -60.984638 
    1360     30.94899   -2.6750599 0.0034754776   -2.2103191    -168.0306 
    1370    25.491598   -2.6188838 0.0064994605   -2.2324563   -238.29043 
    1380    21.961089   -2.5804625 0.0025298509   -2.2506235   -165.18955 
    1390      22.5984   -2.6114512 0.0021686055   -2.2724749   -125.18494 
    1400    26.988042   -2.7119679 0.0077608832   -2.3019759   -231.69064 
    1410    31.711707   -2.8257649  0.014109329   -2.3390227   -318.41932 
    1420    33.918747   -2.8982471 0.0096597657   -2.3830606   -259.96571 
    1430    33.862211   -2.9405132  0.007727871   -2.4281013   -204.30363 
    1440    35.776054   -3.0164097  0.012544421   -2.4706572   -275.99957 
    1450    42.772199   -3.1715618  0.018119353   -2.5159634   -340.18534 
    1460     53.72846   -3.3886255  0.013883322   -2.5739705   -273.33687 
    1470    63.243191   -3.6020167  0.010882153   -2.6485549   -198.60936 
    1480    68.582527   -3.7757928   0.01280727    -2.740828   -236.00427 
    1490    73.779251   -3.9653403  0.016399838   -2.8493308   -277.37245 
    1500    85.058096   -4.2574386  0.015018777   -2.9747096   -213.09995 
    1510    101.33881    -4.647403  0.015810049   -3.1212342   -148.12222 
    1520    116.45435   -5.0446274  0.021020721   -3.2879653   -189.06368 
    1530    132.92679   -5.4847407   0.03438996   -3.4692032   -240.28435 
    1540    161.64633   -6.1467207  0.054838683   -3.6826971   -189.34407 
    1550    187.90029   -6.8469134  0.089485692   -3.9569523   -62.870138 
    1560    169.07627   -6.9362406   0.15278556   -4.2635338    181.43255 
    1570    100.61203   -6.3028745   0.29129739   -4.5120504    678.06268 
    1580    19.747921   -5.2860862   0.37813747   -4.6136247    1186.7283 
    1590    64.387671   -5.9360593   0.29600826   -4.6804139    925.39964 
    1600    113.47995   -6.6971405    0.1573417    -4.848488    359.72887 
    1610    118.20075   -6.9321893   0.11382287   -5.0566964   -41.606167 
    1620    95.727789   -6.7864032   0.10649542    -5.253176    -225.9208 
    1630    59.101443   -6.3493954  0.073590727   -5.3949538    -258.8703 
    1640    33.835679   -6.0294886  0.046484717   -5.4787152   -270.59177 
    1650    21.469685   -5.8933234  0.049326989   -5.5240112   -308.87447 
    1660    15.662677   -5.8419743  0.062415409   -5.5461215    -351.1975 
    1670    16.477103    -5.862001    0.0555456   -5.5608798   -370.44829 
    1680    19.697989   -5.9197612  0.044882154   -5.5812992   -366.85695 
    1690    21.217433   -5.9748026  0.049576379   -5.6090005   -360.21292 
    1700    27.415113   -6.1143631  0.060289203   -5.6454776   -349.18572 
    1710    43.513609   -6.4140896  0.063340284   -5.7022204   -298.50388 
    1720    62.190505   -6.7911322  0.076217891   -5.7880239   -194.25373 
    1730    73.990115   -7.1196369   0.12293775   -5.8939467   -56.915262 
    1740    65.589228   -7.1560858   0.18171832   -5.9968223    137.48672 
    1750    34.029876   -6.7776186   0.20850572     -6.06193    416.85243 
    1760    21.982811    -6.656359   0.23526717   -6.0934589     585.9237 
    1770    24.467899   -6.7212563   0.23164593   -6.1249396    489.65599 
    1780    32.509772   -6.8318133   0.18452397   -6.1627621     214.3495 
    1790    41.354054   -6.9589449   0.13256944   -6.2100325   -13.179556 
    1800    43.442197   -7.0253275   0.11162666   -6.2662361   -115.39389 
    1810    33.774501   -6.9406252   0.11444411   -6.3228042    -180.6997 
    1820    17.662838   -6.7243807  0.098376891    -6.362756   -250.73041 
    1830    13.352316   -6.6612631  0.079828083   -6.3824314   -282.28548 
    1840    17.551019   -6.7425661   0.08379052   -6.3971943   -273.11248 
    1850    16.861267   -6.7623609  0.095386885   -6.4156728   -292.91217 
    1860    14.785215   -6.7444953  0.087219638   -6.4369161   -320.96683 
    1870    15.768204   -6.7723082  0.077306472   -6.4599917   -251.74567 
    1880    21.142322   -6.8959924  0.092436691   -6.4884495    -111.0863 
    1890    31.367151   -7.1276252   0.13303624   -6.5270913   -21.991386 
    1900     30.83045   -7.1876682    0.1629955   -6.5651742    49.138111 
    1910    16.932709   -7.0148165   0.18068931   -6.5817613    196.27275 
    1920    13.914837    -7.004517   0.20700265   -6.5901269    299.83091 
    1930    19.322771   -7.1093226   0.21068451   -6.6106505    221.17303 
    1940    18.627519    -7.092649    0.1719912   -6.6430323    68.775309 
    1950    13.684966   -6.9998012   0.12789519   -6.6679446    16.218256 
    1960    17.288525   -7.0608635   0.11747917   -6.6857153   -1.4508022 
    1970    19.264176    -7.111167   0.11966148   -6.7043913   -100.41016 
    1980    12.133625   -7.0104682   0.11582974   -6.7137983   -215.92436 
    1990    8.2558397   -6.9547782   0.11632017   -6.7154126   -240.77083 
    2000    11.418219   -7.0159717   0.12237994   -6.7234141      -221.75 
    2010    15.298299   -7.0893809   0.11657697   -6.7447973   -233.08226 
    2020    13.274844   -7.0763965   0.10149147   -6.7770561   -199.65746 
    2030    7.7225136   -7.0112504  0.098478108   -6.7976756   -76.325086 
    2040    8.7545594   -7.0473786   0.11685694   -6.8000433    6.1626582 
    2050    14.315504   -7.1545895   0.14025388   -6.8009766   -17.882232 
    2060     13.16111   -7.1712264   0.16866479   -6.8064078   -14.350616 
    2070    7.6569574    -7.118002   0.19044288   -6.8134394    88.872747 
    2080    8.6331712   -7.1402802   0.18633573   -6.8252752    151.17748 
    2090    14.950797   -7.2306217   0.15848126    -6.849313    88.617138 
    2100    11.373412   -7.1738348    0.1373838    -6.866941    13.824967 
    2110    4.9462165   -7.0748276   0.13371178   -6.8673972   -31.223422 
    2120    6.7397589   -7.0970012   0.12959508   -6.8669564   -102.04023 
    2130    9.8088351   -7.1429274   0.12182999    -6.874906   -162.37072 
    2140    7.8299215   -7.1262919   0.12560824   -6.8839861   -139.18051 
    2150    5.0552197   -7.0963403   0.13396572   -6.8870313   -96.406185 
    2160    8.6763149   -7.1520262   0.13137778   -6.8913362   -135.86079 
    2170    12.425025   -7.2189024   0.13005521    -6.903664   -181.10922 
    2180    8.1063165   -7.1705729   0.13021456   -6.9195414   -116.12077 
    2190    3.1959578   -7.1066979   0.12681245   -6.9322527   -8.6609399 
    2200    3.9384502   -7.1199923   0.12203747    -6.939256    29.911862 
    2210    7.4294505   -7.1863487   0.13978604   -6.9358338    12.706951 
    2220     7.338875   -7.2120623     0.172284   -6.9303993    2.4575088 
    2230    4.2776539   -7.1744332   0.17897021   -6.9317086   -1.0579645 
    2240    7.7300687   -7.2168127    0.1591018   -6.9425015   -11.527723 
    2250    10.397187   -7.2532264   0.13881439   -6.9594518  -0.27613811 
    2260    5.7244715   -7.1841017    0.1311554   -6.9676285   -9.9237513 
    2270    1.6717369   -7.1215727   0.12962851   -6.9670285   -89.339941 
    2280    3.0548997   -7.1397872   0.12801833   -6.9662385   -150.70476 
    2290    6.3228164   -7.1929108   0.13072631    -6.967949   -112.49349 
    2300    4.8616754   -7.1815015   0.13750704   -6.9715358   -52.378636 
    2310    3.3897671   -7.1650341   0.14033971   -6.9741732   -70.726472 
    2320    6.9712382   -7.2260518    0.1453365   -6.9768156   -113.02108 
    2330    7.8558509   -7.2496523   0.14783298   -6.9847353   -84.900442 
    2340    3.8240499   -7.1941875   0.13943826   -6.9977554   -19.098976 
    2350   0.80874353   -7.1456593   0.12553169    -7.008074    19.656277 
    2360    2.7269414   -7.1741644   0.13015365   -7.0033683    15.296072 
    2370    5.7314627   -7.2353008   0.15449695   -6.9953818   -27.906801 
    2380    4.0758267   -7.2237771   0.16671936   -6.9963114   -68.107118 
    2390    3.3150205   -7.2044215   0.15326584   -7.0017485    -53.10337 
    2400    5.8841779   -7.2311182   0.13633958   -7.0070805   -15.666349 
    2410    6.0001028   -7.2362933   0.13414863   -7.0127189   -49.011581 
    2420    2.5130427    -7.194435   0.13790715   -7.0190733     -126.361 
    2430   0.40349752   -7.1564305   0.12974149   -7.0206752   -122.53054 
    2440    3.0119252   -7.1876013   0.12320936    -7.019502   -52.723339 
    2450    4.9700946   -7.2306304   0.13489983    -7.021656   -34.980754 
    2460    3.1372818   -7.2208375   0.15278373   -7.0212956   -71.165679 
    2470    2.9964864   -7.2220795    0.1585391   -7.0188806   -76.368227 
    2480    5.1257482   -7.2537357   0.15334534    -7.023996   -36.267136 
    2490    4.6618261    -7.251771   0.14441452   -7.0378764    5.6199016 
    2500     1.397816   -7.1993427   0.13397191   -7.0445377    19.438844 
    2510   0.62289296    -7.181457   0.13420823   -7.0379651   -16.107088 
    2520      3.23206   -7.2316585   0.14685384   -7.0366339   -70.962707 
    2530    3.9209663   -7.2490983   0.15093485   -7.0397251   -67.685963 
    2540    2.3707225   -7.2129273   0.13972389     -7.03787   -31.413334 
    2550     2.377975   -7.2084813   0.13547592   -7.0375639   -64.258395 
    2560    3.9860251    -7.247704   0.14584299   -7.0424531   -134.61908 
    2570    3.5793082   -7.2429522   0.14200357   -7.0476024   -124.00468 
    2580   0.97897552   -7.1878778   0.12273658   -7.0505505   -57.125248 
    2590   0.96314776   -7.1890897   0.12035076   -7.0543841   -41.636098 
    2600    3.1894363   -7.2411242   0.14101707   -7.0525716   -68.463154 
    2610    3.2548874   -7.2544473   0.15816016   -7.0477761   -67.278493 
    2620    1.7525962    -7.233968   0.15806064   -7.0497865   -28.180052 
    2630    1.9867866   -7.2356274   0.15196747   -7.0540488     17.88522 
    2640    3.5720044   -7.2592019    0.1499278   -7.0560367    21.916874 
    2650    2.6071971   -7.2500429   0.15107575   -7.0601093   -26.786467 
    2660    0.7974734   -7.2212405   0.14399509   -7.0653598   -53.158284 
    2670     1.595305   -7.2199851   0.13233883   -7.0638698   -26.350565 
    2680    2.9425808   -7.2386667   0.13218718   -7.0626232   -30.866865 
    2690     2.508737   -7.2421825   0.14209085   -7.0627014   -95.097889 
    2700    1.1873468   -7.2220511   0.14477669   -7.0595781    -133.6637 
    2710    1.6837233   -7.2250056    0.1394479   -7.0604634   -113.99105 
    2720    2.9954331   -7.2460425   0.13388424   -7.0675141    -81.64558 
    2730    2.1287656   -7.2293141   0.12725672   -7.0703301   -69.992057 
    2740   0.90796646   -7.2134131   0.13062387   -7.0692569   -84.419557 
    2750    1.6016813   -7.2397551   0.14385094   -7.0720326   -78.908223 
    2760    2.6473722   -7.2601967   0.14941544   -7.0713247   -19.069193 
    2770    1.9137205   -7.2460444   0.14839047   -7.0691317    24.655903 
    2780   0.67473756   -7.2368871   0.15675281    -7.070078     1.770871 
    2790    1.7157142    -7.261713   0.16578274   -7.0703592   -22.689515 
    2800    2.6671612   -7.2704355   0.15759213   -7.0730918   -10.644188 
    2810    1.6661617   -7.2431348   0.13782913   -7.0804731   -2.8620123 
    2820    1.0476144   -7.2238714   0.12796201   -7.0802957   -28.434975 
    2830    1.6665972    -7.238854   0.13677164   -7.0772434   -82.319542 
    2840    2.1133127    -7.254391   0.14494917   -7.0779449   -117.80501 
    2850    1.0919521   -7.2278614    0.1354187   -7.0761682   -100.21619 
    2860   0.39502749   -7.2100528   0.12885587   -7.0753094   -87.039543 
    2870    1.5105396   -7.2386493    0.1379015   -7.0782346   -111.82389 
    2880    2.2256878   -7.2539151   0.14173378   -7.0790096   -114.85175 
    2890    1.5571963   -7.2401838   0.13501983   -7.0819554   -76.929078 
    2900    1.0289977   -7.2339734   0.13200685   -7.0866303   -31.343376 
    2910    1.6261916   -7.2489187   0.14107416   -7.0836077   -8.3367386 
    2920    1.8853921   -7.2674327   0.15712281   -7.0822099   -17.945931 
    2930   0.65358153   -7.2558285   0.16393661   -7.0821509   -12.556334 
    2940   0.47386388   -7.2457357   0.15797547   -7.0806977    19.412658 
    2950    1.6823948   -7.2615741   0.15224815   -7.0842514    13.907521 
    2960    2.0155106   -7.2630184   0.14575144   -7.0872277   -27.658456 
    2970    1.2934904   -7.2463719   0.14020375   -7.0868899   -61.199434 
    2980    0.9536001   -7.2411275   0.13661096   -7.0903041   -75.134469 
    2990    1.4912206   -7.2411198   0.13046141   -7.0884331    -74.96894 
    3000    1.2901057   -7.2353002   0.12989888   -7.0861736   -96.375974 
    3010   0.36343638   -7.2303193    0.1384004   -7.0865022   -128.29152 
    3020   0.51861742   -7.2350933   0.14264085   -7.0847229   -117.73868 
    3030    1.5229565   -7.2484841   0.13814588     -7.08764   -87.038778 
    3040    1.8377403   -7.2502454   0.13148122   -7.0913744   -62.925719 
    3050    1.1399102   -7.2437681   0.13569106   -7.0910877     -47.7662 
    3060   0.85839147   -7.2559271   0.14932426   -7.0938093   -39.254694 
    3070    1.3442151   -7.2643889   0.15272273   -7.0916319   -8.2437864 
    3080   0.93647219   -7.2543946   0.15023633   -7.0902011    18.243057 
    3090   0.22845579     -7.24964   0.15542077   -7.0908143    9.7401086 
    3100   0.67650473   -7.2596281   0.16066667   -7.0888788   -11.530907 
    3110    1.6146673   -7.2713057   0.15520106   -7.0920395   -36.375269 
    3120    1.5744805   -7.2560375   0.13807957   -7.0944918   -43.377155 
    3130   0.81256885   -7.2366076    0.1294486   -7.0950484   -52.677951 
    3140   0.85543228   -7.2434931   0.13403147   -7.0967122   -88.754933 
    3150    1.1168253   -7.2465568   0.13689535   -7.0930162   -111.36705 
    3160   0.66955166   -7.2388484   0.13576349   -7.0931059   -111.75751 
    3170   0.23914771   -7.2309913   0.13466196   -7.0927651   -94.008138 
    3180   0.68437361   -7.2401728   0.13785635   -7.0921165   -82.331535 
    3190    1.4970048   -7.2608382   0.14306629   -7.0954604   -85.557654 
    3200    1.3501263   -7.2581415   0.14228612    -7.095733   -59.847016 
    3210   0.71576155   -7.2509143    0.1411043   -7.0991423   -22.861119 
    3220   0.84082841   -7.2542905   0.14317789   -7.0985808   0.65326721 
    3230    1.0433446   -7.2632577   0.15169291   -7.0960147   -1.4301705 
    3240   0.62827636   -7.2663968   0.16081378   -7.0962191   -16.423001 
    3250   0.32505361   -7.2561601   0.15722284   -7.0940926   -11.342062 
    3260   0.92149132   -7.2580077   0.14764564   -7.0966281   -18.061936 
    3270    1.4415175   -7.2593719   0.14063816   -7.0972493   -40.541519 
    3280    0.9348879   -7.2534019    0.1407089   -7.0987594   -72.340617 
    3290   0.56211819   -7.2461039   0.13732987   -7.1003962   -91.600391 
    3300   0.79661537   -7.2395902   0.12939232    -7.098325   -84.850354 
    3310   0.91398375     -7.24371   0.13068185    -7.099406   -88.690143 
    3320   0.54060642   -7.2447967   0.14008849   -7.0966509   -95.610361 
    3330   0.33122937   -7.2489496   0.14662214   -7.0973908   -100.01192 
    3340   0.91148726   -7.2528979   0.14122062   -7.0980924   -75.916313 
    3350     1.224044   -7.2551211   0.13714472   -7.0997332   -39.488636 
    3360   0.77120731   -7.2566701    0.1427545   -7.1024215   -26.934247 
    3370   0.52834073    -7.257996   0.14919418   -7.1009274   -25.900129 
    3380   0.79409282    -7.264146   0.14998186    -7.102329   -24.321616 
    3390   0.92320376   -7.2607764   0.14748949   -7.0995275   -2.6876463 
    3400   0.49119081    -7.258722   0.15143585   -7.0999654   -6.1599493 
    3410   0.42891093   -7.2591607    0.1539349   -7.0988333   -36.571979 
    3420   0.95464677   -7.2628255   0.14888592   -7.0997115   -64.689073 
    3430   0.94246074   -7.2545594   0.13829611   -7.1022168   -65.231009 
    3440    0.5392553   -7.2423456   0.13198707   -7.1023215   -56.275796 
    3450   0.51634039   -7.2455858   0.13409226    -7.103798   -80.299077 
    3460   0.88268142   -7.2520456   0.13780752   -7.1010825   -100.96464 
    3470   0.90399958   -7.2558755   0.14020939   -7.1021929   -96.215372 
    3480   0.45119205   -7.2459766   0.13921138   -7.1000407   -62.620614 
    3490   0.48332795    -7.250875   0.14216427   -7.1015072   -55.393901 
    3500   0.84169716   -7.2605361   0.14656762   -7.1014238   -62.414213 
    3510   0.76393607   -7.2626882   0.14767877   -7.1036237   -52.093865 
    3520   0.46124509   -7.2541872   0.14250473    -7.104808   -19.070829 
    3530    0.5293726   -7.2532913   0.14085629   -7.1045452   -3.0772661 
    3540    0.9559147   -7.2667019   0.14833408   -7.1041208   -26.887893 
    3550   0.84323888   -7.2686882   0.15440439   -7.1017161   -46.120115 
    3560   0.41930596   -7.2590775   0.15035727   -7.1024708   -45.004234 
    3570   0.51059385   -7.2503631   0.14146097   -7.1012922   -34.220017 
    3580   0.72597396   -7.2553773   0.14062433    -7.103933   -58.037853 
    3590   0.57729033   -7.2538615   0.14200576   -7.1032518   -83.164727 
    3600   0.35688644   -7.2493663   0.13822738   -7.1058199   -87.374133 
    3610   0.62171115   -7.2452543   0.13180474   -7.1041835   -62.437983 
    3620   0.96922608   -7.2558691   0.13633168    -7.105092   -60.073215 
    3630   0.70558816    -7.259379   0.14607566   -7.1027872   -73.593457 
    3640   0.36215268   -7.2586147   0.14970073   -7.1035164   -76.531389 
    3650   0.44045155   -7.2540274   0.14415275   -7.1033102   -45.046154 
    3660   0.60761746   -7.2566395   0.14211414   -7.1054694   -22.089034 
    3670   0.48622965   -7.2581082   0.14504728   -7.1058142   -30.716165 
    3680   0.36403878   -7.2588872   0.14689439   -7.1065672   -48.630615 
    3690   0.73867413   -7.2608251   0.14396376   -7.1058521    -40.21498 
    3700   0.95165172   -7.2622096   0.14275234   -7.1052738   -25.085089 
    3710   0.61124698   -7.2591751    0.1456687   -7.1043964    -40.68108 
    3720   0.30734259   -7.2565078   0.14821474   -7.1037124   -72.721659 
    3730   0.39344476   -7.2554028   0.14520292   -7.1043359   -78.663393 
    3740   0.53756483   -7.2521929    0.1387654   -7.1054156   -56.679205 
    3750   0.37744857   -7.2475539   0.13520642   -7.1067219   -52.708084 
    3760   0.42024382   -7.2508473   0.13798703   -7.1065969   -72.311552 
    3770   0.81741264   -7.2617877   0.14313905   -7.1064659   -78.728228 
    3780   0.88095649   -7.2631657   0.14434119   -7.1056947   -51.789654 
    3790   0.51903996    -7.256968   0.14365251   -7.1055797    -32.49827 
    3800    0.2548459   -7.2553284   0.14640661   -7.1051235   -42.798169 
    3810   0.38096285   -7.2620988   0.15058728   -7.1058336   -56.889552 
    3820     0.482682   -7.2617253   0.14763452   -7.1068969   -42.824627 
    3830   0.33230782   -7.2522339    0.1393993   -7.1078819   -24.875978 
    3840   0.48476057   -7.2530012   0.13783639   -7.1079399   -36.616473 
    3850   0.80610053   -7.2632831   0.14441621   -7.1068527    -64.66031 
    3860   0.76889963   -7.2652386   0.14756763   -7.1062113   -71.846344 
    3870   0.39119545   -7.2534274   0.14229586   -7.1053012   -56.878072 
    3880   0.20102249   -7.2479887   0.13914221   -7.1058505   -56.114104 
    3890   0.40222352    -7.254259   0.14264464   -7.1056196    -71.92755 
    3900   0.42273432   -7.2584734   0.14473141   -7.1074415    -78.67986 
    3910   0.32112941   -7.2513509    0.1393644   -7.1072003   -55.459438 
    3920   0.51919559   -7.2536872   0.13720962   -7.1087395    -37.97438 
    3930   0.75754645    -7.261435   0.14337495   -7.1067695   -39.994386 
    3940   0.64467034   -7.2683058   0.15146397   -7.1072337   -53.830636 
    3950   0.26888162   -7.2599937   0.15060776   -7.1053785   -42.213169 
    3960   0.21557868   -7.2566159   0.14615416   -7.1072488   -28.791898 
    3970   0.42152913   -7.2568185   0.14395449   -7.1065815   -31.040999 
    3980    0.3799004   -7.2587866   0.14442578   -7.1086988   -56.139394 
    3990   0.33361821   -7.2545929   0.14182453   -7.1077961   -63.505801 
    4000    0.5168799   -7.2547264   0.13839228   -7.1086305   -57.373782 
    4010   0.69959622   -7.2553826   0.13774691   -7.1072089   -57.117416 
    4020     0.525001   -7.2558203   0.14141232   -7.1065834   -76.124201 
    4030   0.20302623   -7.2539172   0.14480004   -7.1060913    -85.46807 
    4040   0.27621107   -7.2540277   0.14391531   -7.1059957   -69.190526 
    4050   0.43446103   -7.2545198    0.1403747   -7.1076699   -51.600042 
    4060    0.3613451   -7.2520364   0.13929044   -7.1073605   -47.614613 
    4070   0.31749984   -7.2578424    0.1440316   -7.1090788   -52.927416 
    4080   0.47595955   -7.2621809   0.14766704   -7.1074201   -38.006286 
    4090    0.6195687   -7.2650264   0.14736721   -7.1084251    -23.66382 
    4100   0.38848522   -7.2586528    0.1462534   -7.1066093   -22.161262 
    4110   0.20190298   -7.2600822   0.14991125   -7.1071618   -39.802047 
    4120   0.35820444   -7.2635822   0.15120847    -7.107035    -49.35218 
    4130   0.44414106     -7.25831   0.14395862   -7.1077319   -48.272271 
    4140   0.32875123   -7.2497002   0.13563853    -7.109162   -53.249837 
    4150   0.25873398   -7.2476395   0.13559547   -7.1081878   -67.543824 
    4160   0.42484706   -7.2562606   0.14102358   -7.1089051   -84.875719 
    4170   0.50794006   -7.2550992   0.14081018   -7.1067187    -81.98038 
    4180   0.28558692   -7.2496069   0.13798973   -7.1073608    -73.72539 
    4190    0.2188473   -7.2496041   0.14004323   -7.1062992   -66.362921 
    4200   0.38882371   -7.2588566   0.14599249    -7.107069   -65.925778 
    4210   0.44753014   -7.2611148   0.14642954   -7.1080153   -56.682082 
    4220   0.28830582   -7.2545467   0.14207867   -7.1081711   -34.099045 
    4230   0.20505349   -7.2554643    0.1427584   -7.1096498   -20.145408 
    4240   0.40327562   -7.2624374   0.14867749   -7.1077495   -20.014201 
    4250   0.42140163   -7.2674852   0.15300721   -7.1081974   -31.920245 
    4260   0.26009299   -7.2609002    0.1502459   -7.1067779   -32.613665 
    4270   0.29786651   -7.2575317   0.14601535   -7.1070769   -32.973324 
    4280   0.45144566   -7.2583741   0.14364833   -7.1079974   -47.804186 
    4290   0.42096196   -7.2553756   0.14152027   -7.1075813   -69.079309 
    4300   0.18882336   -7.2502983   0.13813061   -7.1093535   -82.511985 
    4310   0.17318419   -7.2447447   0.13410017   -7.1080634   -76.608985 
    4320   0.37118002    -7.248393   0.13455278   -7.1083081   -76.727744 
    4330   0.37693864   -7.2524649   0.13941391   -7.1074331   -84.801259 
    4340   0.28770801   -7.2550205   0.14435314   -7.1063793   -83.388053 
    4350   0.35383074   -7.2575676   0.14464505   -7.1076491   -65.550944 
    4360   0.50600759    -7.256712   0.14209167   -7.1070788    -39.68354 
    4370   0.40234951   -7.2590316   0.14422053   -7.1088145   -31.609102 
    4380   0.12432234   -7.2596872   0.14902444   -7.1088099   -30.398487 
    4390   0.17190381   -7.2608935   0.14994382   -7.1083876   -22.050391 
    4400   0.35425884   -7.2612923   0.14710413   -7.1089083   -13.513278 
    4410   0.36721514   -7.2595926   0.14718323   -7.1069364   -17.311567 
    4420   0.33253064   -7.2635482    0.1512927   -7.1072994   -42.333503 
    4430    0.4397693   -7.2626814   0.14895098   -7.1071761    -62.25233 
    4440   0.53164578    -7.254638   0.13936675   -7.1073476   -64.740514 
    4450   0.29796204   -7.2471073   0.13343832   -7.1092282   -67.994739 
    4460  0.078937922   -7.2446373   0.13531585   -7.1081449   -81.438331 
    4470   0.18058533   -7.2497311   0.13851242   -7.1085272   -97.649582 
    4480   0.35002024   -7.2501809   0.13698818    -7.107976   -90.777579 
    4490   0.37742171   -7.2493604    0.1370771   -7.1066582   -67.255918 
    4500   0.34827565   -7.2563015   0.14356878    -7.107542   -58.534368 
    4510   0.48572291   -7.2629694   0.14890718   -7.1068229   -58.278831 
    4520   0.52917887   -7.2634007   0.14784885    -7.107665   -44.693011 
    4530   0.24356314   -7.2574056   0.14466143   -7.1091141   -16.182045 
    4540  0.082448933   -7.2553476   0.14592151   -7.1081973   -1.5976673 
    4550   0.22894542   -7.2627755   0.15063054   -7.1087328   -19.751295 
    4560   0.41209638   -7.2653726   0.15155289   -7.1076778   -37.370974 
    4570   0.40626593   -7.2605426   0.14792005   -7.1065675   -34.503258 
    4580   0.39518056   -7.2577017   0.14428274   -7.1075292   -38.038474 
    4590    0.5391789   -7.2571445   0.14216433   -7.1069442   -63.713275 
    4600   0.45001881   -7.2544995   0.14030013   -7.1074923   -91.000912 
    4610   0.17574598   -7.2474662    0.1360585   -7.1087884   -90.555917 
    4620  0.096916673   -7.2411265   0.13187482   -7.1078072   -73.869949 
    4630   0.27202059   -7.2463517   0.13404401   -7.1082535   -77.587592 
    4640     0.445618   -7.2554035   0.14120589   -7.1075561   -89.963543 
    4650   0.40040333   -7.2578672     0.145671   -7.1062286   -76.298317 
    4660   0.42366692   -7.2584702    0.1448515   -7.1073043   -44.088223 
    4670   0.54813781   -7.2600681   0.14434144   -7.1075572   -24.823993 
    4680   0.41721845   -7.2624502   0.14854663   -7.1076853   -28.207388 
    4690   0.16205376   -7.2630745   0.15158285   -7.1090764   -29.750511 
    4700   0.13002893   -7.2577383   0.14750918   -7.1082912   -13.591562 
    4710   0.35901647   -7.2571741   0.14422306   -7.1076002   -8.5433029 
    4720   0.46335701   -7.2622608   0.14766863   -7.1076862   -34.205267 
    4730   0.36402732   -7.2620477   0.15032266   -7.1062996   -62.646467 
    4740   0.43527982   -7.2576713   0.14475069   -7.1064331   -68.795108 
    4750   0.50223666   -7.2516441   0.13642619   -7.1077325    -64.58147 
    4760   0.35688268   -7.2471252   0.13443759   -7.1073686   -74.432857 
    4770   0.15572815   -7.2477334    0.1374997   -7.1079127   -94.800619 
    4780   0.18765393   -7.2486807   0.13746545   -7.1084184   -94.112172 
    4790   0.41260337   -7.2489212   0.13570039   -7.1070714    -68.59274 
    4800   0.42567509   -7.2530576   0.13982102   -7.1068923     -53.6612 
    4810   0.33811281   -7.2596269    0.1475797    -7.107008   -58.789754 
    4820   0.41468658   -7.2628736   0.15049545   -7.1061976   -52.934106 
    4830   0.47994931   -7.2620518   0.14773236   -7.1071663   -25.595406 
    4840   0.35425614   -7.2590377   0.14535866   -7.1083992   -6.3864152 
    4850   0.17710477   -7.2566944   0.14646077   -7.1075941   -17.374059 
    4860   0.29089843   -7.2606558   0.14876998   -7.1075502   -38.904512 
    4870   0.47270807   -7.2622587   0.14775735   -7.1074561   -41.079397 
    4880   0.37722495   -7.2557688   0.14409379   -7.1060528   -36.024473 
    4890   0.29915889   -7.2527059   0.14235968   -7.1058875   -54.932245 
    4900   0.38858627   -7.2551725    0.1427576   -7.1066234   -84.486372 
    4910   0.46952799   -7.2541441   0.14073956   -7.1064067   -88.096758 
    4920   0.34048207   -7.2475636   0.13556718   -7.1069219   -71.380139 
    4930    0.2207286   -7.2442424    0.1329433   -7.1080094   -67.725946 
    4940   0.36755045   -7.2498601    0.1374155   -7.1069666   -78.127622 
    4950   0.44415868   -7.2572978    0.1445748   -7.1061032    -74.42927 
    4960   0.31875108   -7.2577096   0.14648202   -7.1064769   -50.091792 
    4970   0.25034727   -7.2542133   0.14455129   -7.1059308   -30.431825 
    4980   0.37628484   -7.2579481   0.14673273   -7.1056072   -31.959098 
    4990     0.494338   -7.2653756   0.15113806   -7.1068699   -37.514453 
    5000   0.35201248   -7.2611032   0.14855374   -7.1073031   -28.702392 
    5010   0.29369614   -7.2526645   0.14172726   -7.1065599    -20.74203 
    5020   0.42789588   -7.2545418   0.14157719   -7.1065873   -34.738186 
    5030   0.40499336   -7.2592218   0.14699709   -7.1061887   -58.753626 
    5040   0.22927486    -7.255534   0.14723411   -7.1048828   -68.024813 
    5050   0.18720447    -7.248643   0.14092997   -7.1049229   -64.177316 
    5060   0.40227196   -7.2494235   0.13743215   -7.1059958   -66.477157 
    5070   0.50343081    -7.252973   0.13940087   -7.1060689   -77.142886 
    5080   0.36856476   -7.2519111   0.14037968   -7.1060383   -79.351974 
    5090    0.3659577   -7.2505201   0.13809576   -7.1069701   -65.301324 
    5100   0.43617905   -7.2513493   0.13822321   -7.1066252   -49.291753 
    5110   0.35904323   -7.2545049   0.14404456   -7.1051091   -46.935939 
    5120   0.16212127    -7.257331   0.15000207   -7.1049126    -50.36592 
    5130   0.17580069   -7.2580715   0.15000555   -7.1054458   -41.959927 
    5140   0.46386114   -7.2581595   0.14593189   -7.1053142   -27.162214 
    5150   0.52436147   -7.2569865   0.14354388   -7.1056275   -27.540582 
    5160   0.41010103   -7.2568315   0.14414055   -7.1065788   -43.880345 
    5170   0.39986237   -7.2565975   0.14439633   -7.1062416    -54.28337 
    5180   0.43072083     -7.25355   0.14222002   -7.1049105    -51.86253 
    5190   0.29752803   -7.2495754   0.14062921   -7.1045118   -54.078161 
    5200  0.085460426   -7.2482266   0.14231567   -7.1046372     -68.0671 
    5210   0.22608595   -7.2525178   0.14493501   -7.1042132   -77.250854 
    5220     0.524558   -7.2550023   0.14286541   -7.1043188   -69.315573 
    5230   0.54020819    -7.251174    0.1376621   -7.1054606   -55.730013 
    5240   0.43100209   -7.2497891   0.13723253   -7.1061328   -52.141085 
    5250   0.39806844    -7.254291   0.14322838   -7.1051298   -54.559719 
    5260   0.40634099   -7.2580279   0.14749613   -7.1044757   -49.840479 
    5270   0.21493263   -7.2534515   0.14562363   -7.1046245   -38.026893 
    5280  0.047720372   -7.2495016   0.14451929   -7.1042711   -32.964181 
    5290   0.29915732   -7.2564358   0.14831103   -7.1036661   -41.423977 
    5300   0.57534492   -7.2617321   0.14898897   -7.1041682   -51.682286 
    5310   0.56960068   -7.2556266   0.14178356   -7.1053537   -51.355403 
    5320   0.41825479   -7.2473864   0.13596274     -7.10519   -47.576898 
    5330   0.39480991   -7.2490772   0.13919716   -7.1039957   -56.091923 
    5340   0.39103513   -7.2542594   0.14490936   -7.1035221   -72.489083 
    5350   0.14522227   -7.2495043   0.14383856   -7.1035013   -74.798312 
    5360  0.074370718   -7.2444489   0.14031521   -7.1030253   -59.993591 
    5370   0.37797605    -7.250332   0.14196351   -7.1027351   -50.764854 
    5380   0.61728584   -7.2583604   0.14564649   -7.1035138   -56.960056 
    5390   0.55759445   -7.2574571   0.14440905   -7.1047377   -57.417105 
    5400   0.38759512    -7.251082   0.14062843   -7.1046768   -38.531264 
    5410    0.4277083   -7.2517535   0.14175906   -7.1036199   -23.726498 
    5420    0.3844987   -7.2563264   0.14744257   -7.1031533   -35.077703 
    5430   0.13090044   -7.2554694   0.15038534   -7.1031331   -53.682387 
    5440   0.15471505   -7.2523377   0.14724383    -7.102788    -51.77622 
    5450   0.46329717   -7.2514101   0.14208461   -7.1024205    -41.31168 
    5460   0.65835466    -7.252586   0.13985471   -7.1029191   -52.196363 
    5470    0.4956755   -7.2515081   0.14024473   -7.1038758   -76.373495 
    5480   0.34767855   -7.2482362    0.1392405   -7.1038139   -79.996116 
    5490    0.4521512   -7.2460756   0.13682409   -7.1025127   -62.565272 
    5500   0.37134189   -7.2453349   0.13819018   -7.1016102    -56.56133 
    5510   0.16381076   -7.2490562   0.14496739   -7.1016473   -69.222664 
    5520   0.22491737   -7.2547142   0.14946345   -7.1018986   -69.194271 
    5530   0.54428858   -7.2557314   0.14579021   -7.1018291   -42.800902 
    5540   0.65216921   -7.2527507   0.14110207   -7.1019287   -20.585042 
    5550   0.39890996   -7.2525817   0.14387512   -7.1027612   -27.052835 
    5560   0.36312871    -7.258116   0.14927684   -7.1034271   -41.593587 
    5570   0.50734302   -7.2577626   0.14754247   -7.1026587   -36.196869 
    5580   0.39506522   -7.2496132     0.142668   -7.1010571   -25.536596 
    5590   0.20660445    -7.247959   0.14433566   -7.1005441   -41.185344 
    5600   0.29520847   -7.2537984   0.14825914   -7.1011394   -73.264395 
    5610   0.60864142    -7.254354   0.14347837   -7.1018045    -83.22264 
    5620   0.58145126   -7.2439393   0.13352171   -7.1017516   -67.504443 
    5630   0.32988358   -7.2377448   0.13161394   -7.1012143   -63.569835 
    5640   0.40719096   -7.2455008   0.13832617   -7.1011058   -83.617889 
    5650   0.57418126   -7.2521958   0.14248886   -7.1011493   -90.457756 
    5660   0.48691658   -7.2490856   0.14125365   -7.1005749    -62.42985 
    5670   0.26231412   -7.2464883   0.14308179   -7.0994969   -33.417672 
    5680   0.38430159   -7.2542904   0.14949522   -7.0990675   -35.664662 
    5690   0.65408239   -7.2617739   0.15216047    -7.099865   -44.262994 
    5700   0.47378956   -7.2558112   0.14737334   -7.1013765   -24.491058 
    5710   0.30078795   -7.2495298   0.14307435   -7.1019725  0.080994993 
    5720   0.52045769   -7.2533413     0.144845   -7.1007393   -13.460321 
    5730   0.72390894   -7.2585838   0.14870265   -7.0990919    -50.64123 
    5740   0.55682698   -7.2547452   0.14783197   -7.0986142   -63.673615 
    5750   0.29324772    -7.245776   0.14228516   -7.0991203   -53.997124 
    5760   0.47412747   -7.2444652   0.13792896   -7.0994698   -64.647704 
    5770   0.61518748    -7.245656   0.13733434   -7.0991529   -96.567328 
    5780   0.37898183   -7.2411094   0.13668516   -7.0987759   -104.54148 
    5790   0.30430284   -7.2368683   0.13326265   -7.0990703   -78.410294 
    5800   0.59160142   -7.2407843   0.13245753   -7.0995095   -60.684936 
    5810   0.85738612   -7.2519372   0.14011281   -7.0990458   -70.046381 
    5820   0.59868954   -7.2572405   0.15062806   -7.0976896   -69.035483 
    5830   0.33532239   -7.2543326   0.15266037   -7.0966746   -34.478254 
    5840   0.55155222   -7.2526971   0.14773204   -7.0967447    -1.427276 
    5850   0.57515153   -7.2534358    0.1469733   -7.0978904   -4.3694237 
    5860   0.32811021    -7.255689   0.15152524   -7.0992736   -23.698802 
    5870   0.38777806   -7.2556533   0.15034576   -7.0995281   -24.749198 
    5880   0.85082775   -7.2535429   0.14264714   -7.0982149   -18.244559 
    5890    1.0006127   -7.2514593   0.14029962   -7.0962465   -37.531401 
    5900   0.54357892   -7.2488071   0.14542094   -7.0952846   -77.011585 
    5910   0.37747273   -7.2468749   0.14548193   -7.0957671   -98.278181 
    5920   0.56540543    -7.241037    0.1358062    -7.096804   -89.944216 
    5930   0.52319293   -7.2340232   0.12875683   -7.0974687   -82.492768 
    5940    0.3250841   -7.2339953   0.13209822    -7.097052   -93.390162 
    5950   0.46659781   -7.2407442   0.13777437   -7.0960156   -97.093242 
    5960    1.0410638   -7.2497809   0.13895079    -7.095314   -71.322454 
    5970      1.11328    -7.252677   0.14107154    -7.095013   -37.525965 
    5980   0.58941448    -7.253367   0.14945001   -7.0951323   -27.065796 
    5990   0.45674914   -7.2592955   0.15735261   -7.0951355    -29.50236 
    6000    0.6294132   -7.2603239   0.15590841   -7.0950347   -14.459509 
    6010     0.551989   -7.2512399    0.1481053   -7.0949077    9.2209407 
    6020   0.33372222   -7.2434892   0.14365654   -7.0948588    4.0259927 
    6030   0.72450134   -7.2508643   0.14524394   -7.0948223   -32.435898 
    6040    1.3025905   -7.2610438   0.14705226   -7.0945776    -61.06796 
    6050    1.0398936   -7.2528401   0.14341188   -7.0939296   -65.319951 
    6060   0.52053202   -7.2386388   0.13780806   -7.0930727   -73.326219 
    6070   0.50107678   -7.2358881   0.13616017   -7.0922599   -99.116785 
    6080   0.70397453   -7.2397295   0.13728258   -7.0919548   -114.49642 
    6090   0.57499819   -7.2352291   0.13435058   -7.0923087   -98.419561 
    6100   0.37034377   -7.2276155   0.12895797   -7.0931379   -73.615186 
    6110   0.87740854   -7.2388336   0.13200973   -7.0937469   -67.135699 
    6120    1.4036654   -7.2594131   0.14524052   -7.0932523   -65.201721 
    6130    1.0609644   -7.2628299    0.1551792    -7.091838   -42.390804 
    6140    0.5299264   -7.2516458   0.15319129   -7.0905565   -8.4671121 
    6150   0.58034922   -7.2483525   0.14980867   -7.0898943    6.8216356 
    6160   0.89959146   -7.2566581   0.15325701   -7.0899935   -2.5563733 
    6170    0.6263185   -7.2538655   0.15383113   -7.0906997   -15.902981 
    6180   0.55820269   -7.2439638   0.14407605   -7.0915683   -22.487487 
    6190    1.2306211   -7.2463456   0.13634821   -7.0916561   -34.967588 
    6200    1.4794228   -7.2528924   0.14039052   -7.0904524   -63.509519 
    6210   0.92162481   -7.2490049   0.14653599    -7.088733   -94.941084 
    6220   0.48616608    -7.235934   0.14120483   -7.0874833   -105.78595 
    6230   0.79765537   -7.2304163   0.13147034   -7.0870577   -95.515042 
    6240    1.0364222   -7.2331323   0.13030813   -7.0873773    -87.20324 
    6250   0.62687909   -7.2326792   0.13531056   -7.0880256   -90.361091 
    6260   0.67283204   -7.2358434    0.1371417   -7.0886738   -84.452258 
    6270    1.3432663   -7.2460006   0.13729231   -7.0886882   -54.216342 
    6280    1.5662663   -7.2551954    0.1441342   -7.0877175   -22.449611 
    6290   0.95929792   -7.2563519   0.15564976   -7.0864048   -16.091047 
    6300   0.55280683     -7.25434   0.16077586   -7.0853251   -21.338057 
    6310    1.1350203   -7.2569554   0.15516131   -7.0848777   -10.364178 
    6320    1.2193103   -7.2486059   0.14584695   -7.0845863    5.8294116 
    6330   0.67281482   -7.2360003   0.14133671   -7.0846359   -9.7685521 
    6340   0.84438441   -7.2398954   0.14273514   -7.0845755   -52.658794 
    6350    1.4944559   -7.2490197   0.14269965   -7.0840466   -77.593961 
    6360    1.4684902   -7.2434911   0.13841192   -7.0831927   -73.708086 
    6370   0.73134154   -7.2294191   0.13593153   -7.0825876   -78.013648 
    6380   0.78065258   -7.2343141    0.1400756   -7.0826036   -105.36742 
    6390    1.4753509   -7.2467829    0.1421094   -7.0826848   -116.44089 
    6400    1.2743559   -7.2358345   0.13422477   -7.0826167   -85.362772 
    6410   0.70614954   -7.2203385   0.12754645   -7.0822676    -48.85252 
    6420    0.8566209   -7.2295203   0.13556186   -7.0811913   -45.391923 
    6430    1.5584397   -7.2535459   0.15059995   -7.0797189   -53.222218 
    6440    1.5072088   -7.2552155   0.15439025   -7.0783617    -31.59775 
    6450   0.71118006   -7.2377181   0.14924532   -7.0778733    4.1709685 
    6460    1.1050875   -7.2465803   0.15176423   -7.0783458    3.4351881 
    6470    1.8369367    -7.263813   0.15726589   -7.0791693   -31.724201 
    6480    1.3667935   -7.2494546   0.14904231   -7.0800416   -49.198108 
    6490   0.66418649    -7.223668   0.13346744   -7.0803014   -35.936981 
    6500   0.98531291   -7.2253603   0.13147985   -7.0791953   -39.587793 
    6510    1.7365981   -7.2454887   0.14278013   -7.0768262   -82.004109 
    6520    1.2721874   -7.2402582   0.14674144    -7.074556   -112.14975 
    6530   0.77499486   -7.2234752    0.1385054   -7.0734193   -91.188083 
    6540    1.5654847   -7.2310655   0.13458464   -7.0731488   -60.564948 
    6550    2.0506137   -7.2432086    0.1394017   -7.0732444    -69.28257 
    6560    1.3041586    -7.234483   0.14136238   -7.0736834   -87.150196 
    6570   0.48945251    -7.217771   0.13609279   -7.0743834   -58.351263 
    6580    1.0272393   -7.2254409   0.13575737   -7.0743735   -9.3052861 
    6590    1.8255412   -7.2471035   0.14676034   -7.0731352   -8.9019831 
    6600    1.1987344   -7.2474997   0.15801269    -7.071621   -46.010103 
    6610   0.96468531   -7.2436314   0.15814102   -7.0711127   -49.889237 
    6620    1.9847679   -7.2498193   0.14871416    -7.071524   -15.830177 
    6630    2.2960473   -7.2461649    0.1402717   -7.0716728    -14.53771 
    6640    1.0953377   -7.2262199   0.13847966   -7.0714153    -64.04849 
    6650   0.34505823   -7.2151678   0.13934264   -7.0706824   -93.578381 
    6660    1.3726153   -7.2262179   0.13656783   -7.0691925    -68.15122 
    6670    1.7830804   -7.2281123   0.13443116    -7.067106   -47.273899 
    6680    1.0227285   -7.2212941   0.14081019   -7.0652411   -76.174921 
    6690    1.2618756   -7.2343586   0.15106525   -7.0644863   -103.67999 
    6700    2.4097582   -7.2484329   0.14805727   -7.0644605    -72.02608 
    6710    2.3642206   -7.2346009   0.13457449   -7.0647899   -21.647308 
    6720   0.80677731   -7.2085618   0.13121448   -7.0653231   -21.117657 
    6730    0.4376442   -7.2153103   0.14338373   -7.0654039   -52.482145 
    6740    1.7475682   -7.2415154   0.15109282   -7.0643768   -48.655627 
    6750    1.9286727   -7.2365542   0.14522243   -7.0625867   -13.861605 
    6760    1.1850465   -7.2227481   0.14365901   -7.0614271   -16.159093 
    6770    1.6339701   -7.2387845    0.1533018   -7.0611299   -63.642822 
    6780    2.8889927   -7.2580475    0.1535708    -7.061419   -87.512904 
    6790    2.3185807   -7.2320414   0.13546183   -7.0620233   -59.074436 
    6800   0.48139967   -7.1930187   0.12334202   -7.0625019   -39.635973 
    6810    0.7997864   -7.2067645    0.1330089   -7.0618355   -72.739004 
    6820    2.1937529   -7.2395858   0.14699654   -7.0598934   -103.39595 
    6830    2.0429202   -7.2342334   0.14612665    -7.057659   -74.239621 
    6840    1.3022049   -7.2175396   0.14171666   -7.0564148   -28.164627 
    6850    2.1439649   -7.2357429   0.14774501   -7.0560442   -33.000403 
    6860    3.3947915   -7.2605523   0.15402539   -7.0559307   -62.826858 
    6870    2.0697327   -7.2322938   0.14539358   -7.0560528    -45.29095 
    6880   0.40915941   -7.1951475   0.13288185   -7.0561675    1.4762316 
    6890    1.3107583   -7.2091112   0.13431323   -7.0552623   -3.5774111 
    6900    2.6018831   -7.2378377   0.14640113    -7.052658   -59.915794 
    6910    2.1598627   -7.2351958   0.15288354   -7.0501216   -85.976763 
    6920    1.3400339    -7.215475   0.14655204    -7.048951   -59.206919 
    6930    2.5959545     -7.22486   0.13765051   -7.0485193   -50.167349 
    6940    3.6836237   -7.2379542   0.13519867   -7.0478546   -88.163142 
    6950    1.9327288   -7.2120886   0.13581837   -7.0474648   -109.31363 
    6960   0.66259094   -7.1901345   0.13278938   -7.0474699   -75.231748 
    6970    1.9882376   -7.2055851   0.12946203   -7.0464903   -37.971747 
    6980    3.3105434   -7.2308951   0.13744552   -7.0441091   -45.431725 
    6990    2.2357547   -7.2308612     0.155658   -7.0418814   -59.853939 
    7000    1.4425515   -7.2268341   0.16430391   -7.0410304   -33.987677 
    7010    3.4339841   -7.2448178   0.15272029   -7.0409172    4.4577321 
    7020    3.7820196   -7.2359502   0.13886017   -7.0407227    6.9679042 
    7030    1.7401336   -7.2066986   0.14008746   -7.0406761   -22.666369 
    7040    1.2952089   -7.2048611   0.14529819   -7.0402591   -42.838143 
    7050    3.0084518   -7.2213743   0.13786262   -7.0386736   -42.759521 
    7060    3.8450474   -7.2242007   0.13109408   -7.0357999   -54.688826 
    7070    2.1154893   -7.2047807   0.13969997   -7.0335514   -90.354947 
    7080    1.7726154   -7.2094132   0.15027431   -7.0327197    -120.4166 
    7090    3.8823228   -7.2309405   0.14063408   -7.0324441   -113.89528 
    7100    3.9033842   -7.2126494   0.12249736   -7.0319758   -82.547515 
    7110    1.8980984   -7.1824827    0.1223266   -7.0318667   -68.046067 
    7120    1.6332267   -7.1929563    0.1372739   -7.0313407   -74.366142 
    7130    3.8944214   -7.2343221   0.14691848    -7.029361   -61.133224 
    7140    4.2557848   -7.2366801   0.14696852   -7.0262831   -12.194317 
    7150    1.7641901   -7.2037405   0.15315465   -7.0242922     26.34324 
    7160    2.4551614   -7.2262884   0.16590446   -7.0237921    12.420588 
    7170    4.6646667   -7.2576279   0.16481446    -7.023291   -15.048923 
    7180    3.9671109   -7.2266504   0.14434646   -7.0231779   -7.1331329 
    7190    2.0929747   -7.1822901   0.12835205   -7.0227443    3.5854804 
    7200    2.6311408   -7.1899765   0.12918828   -7.0215735   -38.800492 
    7210    4.6965023   -7.2286212   0.13971904   -7.0189053   -108.57479 
    7220    3.6487369   -7.2105547   0.14032154   -7.0158522   -130.20618 
    7230    1.4317538   -7.1677367   0.13192391   -7.0144739   -106.67518 
    7240     2.718386    -7.183417   0.12872142   -7.0141806   -105.03017 
    7250    4.9863787   -7.2226788   0.13479196   -7.0135696   -131.79655 
    7260    4.5671418   -7.2172836   0.13612046   -7.0130943   -123.54237 
    7270    2.5802011   -7.1783682   0.12695398   -7.0129588   -59.912099 
    7280    3.4860217   -7.1902811   0.12637948   -7.0119458   -6.1333555 
    7290    5.7561453    -7.244265   0.14970691   -7.0087682   -3.2371101 
    7300    3.6575363    -7.234484   0.17488814   -7.0050838   -3.3401808 
    7310    1.4916682   -7.1987206   0.17261489   -7.0038739    30.558878 
    7320    3.8588871   -7.2160756   0.15437659    -7.004186     58.88016 
    7330     6.235855   -7.2454211   0.14790306   -7.0045786    29.109802 
    7340     4.648395   -7.2224746   0.14890291   -7.0042918   -39.115813 
    7350    3.0323632   -7.1846297   0.13573409   -7.0037011   -78.882807 
    7360    4.8522962   -7.1921522   0.11826501   -7.0015683    -78.93508 
    7370    5.4577947   -7.1999891   0.12107464   -6.9975712   -95.954883 
    7380    2.7596521   -7.1751813   0.13971182   -6.9943395   -153.43335 
    7390    1.4408775   -7.1569886   0.14257163    -6.992942   -186.16452 
    7400    4.0160407   -7.1790418   0.12633392   -6.9928526   -142.12126 
    7410     6.660806   -7.2117204    0.1199575   -6.9924899   -77.840121 
    7420    5.0385725    -7.198096     0.131456   -6.9915448   -66.876781 
    7430    3.3759687   -7.1827752   0.14229809   -6.9901615   -73.760809 
    7440    5.4881052   -7.2138848   0.14458328   -6.9875065   -16.160967 
    7450     5.663733   -7.2197238   0.15161485   -6.9836964    77.891682 
    7460    2.1381894   -7.1826146   0.16992947   -6.9808175    94.581875 
    7470    1.6538928   -7.1844116   0.17999785    -6.979764    25.696994 
    7480    6.0731294   -7.2362635   0.16656318   -6.9791861   -12.971787 
    7490    7.2361586   -7.2249592   0.13853643   -6.9785747    14.927893 
    7500       4.1557   -7.1617502   0.12186458   -6.9779489   -3.0731221 
    7510     4.186939   -7.1642907   0.12491276   -6.9769756   -111.44448 
    7520    5.8457173   -7.1933486   0.13167669    -6.974547    -183.6316 
    7530    4.5287481   -7.1655559   0.12621411   -6.9718451   -146.77617 
    7540    1.3697398   -7.1112753   0.12061179   -6.9702488   -107.53383 
    7550    1.8026254   -7.1258693   0.12867658   -6.9703263   -152.04835 
    7560    6.2713974   -7.2068141   0.14259383    -6.970751   -187.35171 
    7570     7.343779   -7.2158444   0.13551022   -6.9708821   -104.99983 
    7580    4.5319118   -7.1582975   0.12034334   -6.9704103     12.83465 
    7590    4.6836433   -7.1696644   0.13179888   -6.9680603    32.401131 
    7600    6.5401663   -7.2286478   0.16772547   -6.9634474  -0.69825828 
    7610     4.986858   -7.2165812   0.18329174    -6.958965    37.339215 
    7620    1.3883801   -7.1418931   0.16447804   -6.9567226    113.90203 
    7630    4.0837881   -7.1698108   0.15302886    -6.955917    87.048412 
    7640    8.7668648   -7.2447918   0.15904851   -6.9550815   -33.687477 
    7650    6.5879402   -7.1999446   0.14693404   -6.9548236   -97.924102 
    7660    4.0245908    -7.130591   0.11514492   -6.9554634   -72.249691 
    7670    5.1687103   -7.1357611   0.10397411   -6.9547523   -74.505816 
    7680    6.4810188   -7.1731783   0.12446535   -6.9521195   -161.18972 
    7690    4.1298355   -7.1528306   0.14237338    -6.948906   -221.98771 
    7700    1.2818015   -7.0969091   0.13020137   -6.9476037   -166.65024 
    7710    4.2877536   -7.1313391   0.12030186   -6.9471323   -84.710602 
    7720    8.7005021   -7.2076672   0.13228399   -6.9457105   -80.744786 
    7730    7.4275784   -7.1989115   0.14509489   -6.9431156   -94.304251 
    7740    4.7207083   -7.1513429   0.13946402   -6.9415212    -18.41767 
    7750    5.7249473   -7.1622602   0.13736612   -6.9395692    96.834233 
    7760    8.0661211   -7.2150839   0.15844113   -6.9364249    111.71644 
    7770    4.6088291   -7.1830352   0.18076145   -6.9335835    37.785554 
    7780    2.5812327   -7.1496189   0.17791047   -6.9332376  -0.40806463 
    7790    7.6479924   -7.2039229   0.15532639   -6.9346104    19.494951 
    7800    9.1350868   -7.2030415   0.13142885   -6.9354629   -2.2193961 
    7810    6.0025556   -7.1467101   0.12268994   -6.9345578    -106.0455 
    7820    4.5855986   -7.1236307   0.12367504   -6.9316116   -176.24095 
    7830    7.2977672   -7.1565821   0.12040364   -6.9274122   -141.88061 
    7840     8.957046   -7.1723526   0.11619514   -6.9226612   -103.05734 
    7850    5.2667921   -7.1206786   0.12278189   -6.9194002   -142.44193 
    7860    3.8273268   -7.1184348   0.14283479   -6.9185573   -182.18393 
    7870    7.9595007   -7.1887789    0.1504599   -6.9196902   -121.16609 
    7880    9.9463988   -7.2035544   0.13288795   -6.9224248   -12.150959 
    7890    6.8454062   -7.1503507   0.12363443    -6.924692    27.231649 
    7900    4.8341484   -7.1404831   0.14527814   -6.9231565    8.7122144 
    7910    8.8743211   -7.2222563   0.17224241   -6.9177505    24.845066 
    7920    9.9100463   -7.2249622   0.16585859   -6.9114038    80.417185 
    7930    5.3869275   -7.1358581    0.1481813   -6.9073898    78.160664 
    7940    5.9784349   -7.1519958   0.15662065   -6.9062723   -14.015267 
    7950    9.1511083   -7.2059232   0.16296129   -6.9065733   -92.138593 
    7960    8.3881573   -7.1676058   0.13375348   -6.9088348    -91.97211 
    7970    4.7555825   -7.0851807   0.10263287   -6.9116704    -78.68504 
    7980    5.2409651   -7.0985726   0.10937983   -6.9110811   -123.32718 
    7990    9.8507984   -7.1891207   0.13624939   -6.9060545   -179.21205 
    8000    9.1323696   -7.1752177   0.13907694   -6.9000315   -158.38034 
    8010    4.6347639   -7.0906513   0.12493804   -6.8966365   -88.414253 
    8020    4.9028552   -7.1027946   0.13360346   -6.8961188   -61.537804 
    8030    8.1327574   -7.1733942   0.15425657   -6.8979266   -73.325526 
    8040     7.839758    -7.171834   0.15309541   -6.9018945   -40.811118 
    8050    4.4769951   -7.1046993   0.13299291    -6.904981    46.362513 
    8060    6.4559701   -7.1341984   0.13525736   -6.9027209    85.001863 
    8070    11.504678   -7.2272772   0.15995137   -6.8958595    31.617989 
    8080    9.1161943   -7.1986381   0.17281294    -6.889957   -23.447081 
    8090    4.9138275   -7.1185664   0.15712864   -6.8882018   -20.903487 
    8100    5.6930461   -7.1110602   0.13721924   -6.8889915   -18.067575 
    8110    7.6217283   -7.1343542   0.12871963     -6.89204   -75.303846 
    8120    5.1080716   -7.0998948   0.12885194   -6.8949119   -143.13464 
    8130    3.9036858   -7.0770415   0.12423321   -6.8946275    -142.1516 
    8140    9.1751345   -7.1448887   0.11757225   -6.8905698   -94.225242 
    8150    12.612662    -7.194922   0.12141605   -6.8855262   -77.859143 
    8160    9.4665048   -7.1681354   0.14393743   -6.8831087   -102.32298 
    8170    5.5140679   -7.1298899   0.16409818   -6.8836098   -97.568171 
    8180    5.5145051   -7.1221931   0.15338012   -6.8866246   -32.604065 
    8190    6.8643687   -7.1254973   0.13337069   -6.8898197    29.952099 
    8200    4.7102197   -7.0947234   0.13505791   -6.8894642     33.85447 
    8210    4.9544286    -7.112361    0.1527091   -6.8858109   0.28780653 
    8220    10.693065   -7.1925497    0.1506497     -6.88253    -10.99477 
    8230    13.230408   -7.2128327   0.13469191   -6.8809541  -0.73106447 
    8240     9.202017   -7.1577234   0.13883512    -6.881741    -28.70928 
    8250    4.4636722   -7.1057477   0.15713516   -6.8820857   -100.49553 
    8260    5.1974226   -7.1070477     0.148295   -6.8812901   -140.48427 
    8270    5.5378834   -7.0792108   0.11680872   -6.8798652   -101.35624 
    8280    3.2849303   -7.0347472   0.10689111   -6.8788973   -57.259337 
    8290    6.0093147   -7.1002265   0.13053588   -6.8801275   -86.638983 
    8300    11.591985   -7.2045178   0.14900208   -6.8827482   -119.71411 
    8310    12.926408    -7.218955   0.14350314    -6.882796   -61.942634 
    8320    8.5672935   -7.1508057   0.14353796   -6.8795804    29.929689 
    8330    4.4228597   -7.1050212   0.16260119   -6.8765015    33.243826 
    8340    5.2295266   -7.1248153   0.17068802   -6.8761862   -29.230835 
    8350    4.5216745   -7.0932453   0.14680058   -6.8790535    -19.90236 
    8360    4.1269705   -7.0695148   0.12366291   -6.8843433     44.14776 
    8370     8.097119   -7.1337778    0.1278118   -6.8852861    17.232021 
    8380    12.437079   -7.2101425   0.14435123   -6.8804284   -103.38634 
    8390    13.004713   -7.2160982   0.14618739    -6.876088    -159.1241 
    8400    7.9829026   -7.1246714   0.12990741   -6.8757864    -96.33162 
    8410     4.663913   -7.0700445   0.12226553   -6.8782678   -64.809854 
    8420    5.7493571   -7.0979283   0.13181312   -6.8804265   -137.69322 
    8430    5.3723317   -7.0991015   0.13814559   -6.8808864   -172.94165 
    8440    5.6129582   -7.0908786   0.12775784    -6.879465     -76.6552 
    8450    9.1041178   -7.1362332   0.12216475   -6.8783802    29.802235 
    8460    13.127191   -7.2212384   0.14503598   -6.8805541     19.89373 
    8470    12.293416   -7.2461606    0.1806601   -6.8822788   -25.059591 
    8480    7.2902354   -7.1716112   0.18130871   -6.8816484    23.259672 
    8490     6.205789   -7.1259641   0.15341543   -6.8800573    97.530879 
    8500     6.453395   -7.1152902   0.13961401   -6.8794944    61.779287 
    8510    5.9821453   -7.1185597   0.14711088   -6.8822906   -58.936978 
    8520     6.758106   -7.1281842   0.14104975   -6.8864113   -113.65445 
    8530    8.9456284   -7.1342716   0.11366601   -6.8872795   -76.762641 
    8540     11.47377    -7.163353    0.1087286   -6.8836188   -85.375668 
    8550     9.862711    -7.160579   0.13167297   -6.8819116   -178.39966 
    8560    5.8648631   -7.1139556   0.14314936    -6.883396   -224.40356 
    8570    5.1180223   -7.0850343   0.12331737   -6.8854376    -147.1937 
    8580    5.9459536   -7.0878679   0.11258267   -6.8866664   -57.074146 
    8590    6.7024041   -7.1182417   0.13209251   -6.8862563   -63.354564 
    8600    7.0195119   -7.1462102   0.15530003   -6.8862911   -80.620477 
    8610     8.627401   -7.1716543   0.15365763   -6.8894134    14.055496 
    8620    10.271794   -7.1986218   0.15329937   -6.8922311    143.71965 
    8630    8.0330922   -7.1831123   0.17206992   -6.8913168    146.31732 
    8640    6.7783143   -7.1780082   0.18786687    -6.889117    36.245296 
    8650    7.6586117   -7.1744177   0.16978929   -6.8904841   -16.412871 
    8660    8.0471193   -7.1495883   0.13523812   -6.8944155    13.962782 
    8670    7.1311583   -7.1228549   0.11840867    -6.898163   -22.110544 
    8680    6.0616894   -7.1075284    0.1203319   -6.8968527   -155.38469 
    8690     7.106788   -7.1239022   0.12292026   -6.8950621   -229.94019 
    8700    7.8656412   -7.1277468   0.11374453   -6.8967724   -174.50494 
    8710    6.8857452   -7.1099756   0.10880509    -6.898545    -129.1616 
    8720    6.4190137   -7.1141785   0.11972903   -6.8987802   -182.89562 
    8730     6.887376   -7.1384473   0.13753233   -6.8982652   -209.17203 
    8740    8.5170732   -7.1674215   0.14021814   -6.9002644   -102.29396 
    8750     8.688879   -7.1672206   0.13339273   -6.9043284    34.899635 
    8760     6.562496   -7.1483624   0.14219924   -6.9083553    74.177581 
    8770    5.8390885   -7.1696659   0.17567396   -6.9069659    66.643912 
    8780    5.4527363    -7.180338   0.19332115    -6.905749     120.6359 
    8790    6.1623287   -7.1737034    0.1748471   -6.9070126    174.07305 
    8800    7.8733544   -7.1808081   0.15356873   -6.9098945    106.00461 
    8810     9.384802   -7.2059701   0.15503116   -6.9110674   -42.654302 
    8820    8.9870508   -7.1958982   0.15016803   -6.9117867   -126.48521 
    8830    5.7848916   -7.1179679   0.11783861    -6.913911    -118.6172 
    8840    3.4012261   -7.0629408  0.094664385   -6.9175844   -132.66224 
    8850    2.8557324   -7.0652439   0.10547286   -6.9172091   -209.24562 
    8860    3.3887293   -7.0897569   0.12402611    -6.915225   -253.80748 
    8870    4.9698104   -7.1085934   0.11911067   -6.9154124   -204.06374 
    8880     6.355633   -7.1219994   0.10937306   -6.9179017   -128.41816 
    8890    8.4524493   -7.1727613    0.1271028   -6.9196827   -103.76075 
    8900    9.8665184   -7.2245361   0.15678675   -6.9206983   -83.018893 
    8910    7.5794598   -7.1990687   0.16313457   -6.9229694    15.632297 
    8920    4.1688794   -7.1459334   0.15587924    -6.927921    148.42514 
    8930    1.9062037    -7.122718   0.16599617   -6.9283117    199.82507 
    8940    3.4596281   -7.1635903   0.18641498   -6.9256129    142.47053 
    8950    6.9214363   -7.2139713   0.18493618   -6.9258777    66.552859 
    8960    9.4390639   -7.2274331   0.15688114   -6.9298717     26.17518 
    8970    10.569985   -7.2232524   0.13341156   -6.9323053   -30.762962 
    8980    8.3011664   -7.1811648   0.12444557   -6.9329982   -132.31951 
    8990    4.7747419   -7.1268967   0.12085453   -6.9348792   -212.45037 
    9000    1.9635155   -7.0780125   0.10996769   -6.9387805   -210.63817 
    9010    1.0802833   -7.0530923  0.099205154   -6.9377865   -178.27442 
    9020    2.8226303   -7.0811776   0.10361502    -6.935494   -190.69213 
    9030    5.1556726   -7.1367008   0.12286927   -6.9369912   -212.37849 
    9040    7.6252298   -7.1923499   0.13829561   -6.9404075   -162.73916 
    9050    9.7996719   -7.2259869   0.13839864   -6.9415335   -53.120818 
    9060    8.9879419   -7.2190202   0.14239819   -6.9426653    36.237425 
    9070    5.8804693   -7.2023904   0.16684126   -6.9479064    79.693934 
    9080    1.7781346   -7.1659593   0.18903344   -6.9504244    123.32554 
    9090    1.0161161   -7.1414311   0.17880271   -6.9474841    167.32638 
    9100    4.1359619   -7.1673307   0.15836354   -6.9473246    149.09058 
    9110    7.1107766   -7.2138454   0.15663169   -6.9512344    50.535397 
    9120    8.9183175   -7.2474316   0.16222435   -6.9522882   -65.050981 
    9130     8.227921   -7.2157183   0.14097161   -6.9521174   -125.83701 
    9140     6.065999   -7.1574472   0.11077751   -6.9562617    -143.1301 
    9150    3.4677742    -7.116241   0.10425495   -6.9603021    -170.2308 
    9160    1.3599525   -7.0948862    0.1167617   -6.9578557   -213.72295 
    9170    1.7082779   -7.1010148   0.11809698   -6.9574575   -226.00199 
    9180    3.4871784   -7.1214249   0.10797227   -6.9614795   -178.74771 
    9190    5.7972934   -7.1626672   0.11490214   -6.9613619   -115.73395 
    9200    8.0979368   -7.2246944   0.14365276   -6.9603496   -85.787553 
    9210    8.4268142   -7.2541243   0.16308773   -6.9654429   -52.565328 
    9220    7.0888048    -7.236099   0.16039306   -6.9700541    41.841712 
    9230    4.1442092   -7.1896747   0.15965835   -6.9682508    150.84214 
    9240    2.1016971   -7.1741175   0.17288847   -6.9699052    162.63569 
    9250    3.2402186    -7.202439   0.18011252   -6.9740341    81.937624 
    9260    5.3124019   -7.2149297   0.16382593   -6.9719275    23.700263 
    9270     6.978618   -7.2184468   0.14279736   -6.9716397    7.2713577 
    9280    6.7828721   -7.2117887   0.13383891   -6.9768575   -49.661677 
    9290    5.8475553   -7.1988471   0.13332695   -6.9783679   -154.55024 
    9300    4.7545652   -7.1750939   0.12715397   -6.9770776    -208.4533 
    9310     3.264116   -7.1433606   0.11336423   -6.9813479   -175.05808 
    9320    2.7738138   -7.1314241   0.10633236   -6.9837507   -140.66203 
    9330    3.0878141   -7.1427572   0.11617205   -6.9805642   -163.74942 
    9340    4.0249909   -7.1760113   0.13303681   -6.9829858   -177.50906 
    9350    5.4524824   -7.2068566   0.13824446   -6.9873481   -103.10453 
    9360    5.7998699   -7.2087979   0.13719504   -6.9851613     6.667051 
    9370    5.5724566   -7.2239293   0.15357003   -6.9873071    44.768598 
    9380    4.6367365   -7.2403097   0.17840376   -6.9927998    36.347466 
    9390    3.5502885   -7.2213572   0.17749833   -6.9909452    70.393637 
    9400    3.5876729   -7.2001649   0.15518587   -6.9915082    114.34067 
    9410    3.9281451   -7.2019702   0.14689629   -6.9965287    74.343135 
    9420    4.6549555   -7.2199965   0.15611138   -6.9945075   -34.853132 
    9430    4.3364482   -7.2104987   0.15193828   -6.9939297   -106.14815 
    9440    3.8372649   -7.1841459    0.1280952   -6.9988599   -102.29497 
    9450    3.9379993   -7.1729711   0.11616811   -6.9981109   -98.914338 
    9460    3.9596123    -7.183238   0.12661919   -6.9976046   -155.39839 
    9470    4.1987439   -7.2002672   0.13453855   -7.0031504   -201.74606 
    9480     4.053606   -7.1850526     0.121588   -7.0030495   -149.80304 
    9490    3.5622375   -7.1708001   0.11546789   -7.0022404   -68.510593 
    9500     3.621339   -7.1959935   0.13436974   -7.0076511   -61.669633 
    9510    3.3475587   -7.2118891   0.15553135   -7.0064656   -77.161413 
    9520    3.3691535   -7.2123318    0.1569508    -7.005167   -20.853792 
    9530    3.6804232   -7.2181212   0.15289731   -7.0103707    70.767321 
    9540    4.1729715   -7.2309417   0.15908288   -7.0096646    86.656326 
    9550    4.7205018   -7.2462887   0.16655811    -7.009376    14.845243 
    9560    4.1314633   -7.2354655   0.15890188   -7.0149881   -29.910426 
    9570    3.4660066   -7.2061121    0.1408561   -7.0135985   -5.4133423 
    9580    2.4987793   -7.1822296     0.132232   -7.0127557    -18.09316 
    9590    1.7947538    -7.179614   0.13628433   -7.0165806   -108.43064 
    9600    2.0732914   -7.1847095   0.13974723   -7.0140619    -161.4886 
    9610    2.9318093    -7.190988   0.13243794   -7.0148542   -121.83772 
    9620    4.2843485   -7.2082094   0.12484918   -7.0195061   -79.629596 
    9630    4.7630777   -7.2165628   0.12758784   -7.0179858   -101.23172 
    9640    3.8165891   -7.2174429   0.13998821    -7.020572   -126.44157 
    9650    2.6697979   -7.2080978   0.14392795    -7.024379   -71.279564 
    9660     1.464107   -7.1805895   0.13776691   -7.0210015    12.030481 
    9670    1.1854966   -7.1832178   0.14241323   -7.0231359    15.562233 
    9680    1.7165035    -7.211039   0.16126885   -7.0241873   -23.882636 
    9690    3.0009724   -7.2340024   0.16746422   -7.0218116   -14.636537 
    9700      4.59182   -7.2462165   0.15148293   -7.0262968    20.728834 
    9710    4.5533395   -7.2317699   0.13675202   -7.0271547    7.1991291 
    9720    3.3773972   -7.2184586   0.14180204   -7.0263197    -62.51006 
    9730    1.8159806   -7.2048338   0.14756938   -7.0301989   -105.92345 
    9740   0.82268589    -7.174803   0.13476198   -7.0277797   -81.961119 
    9750    0.8361533   -7.1643422   0.12418727   -7.0276929   -65.927064 
    9760    1.4934845    -7.187009    0.1346438   -7.0301062   -98.405013 
    9770     3.200017   -7.2245668   0.14875344   -7.0281201   -120.12132 
    9780    4.5317752   -7.2433421   0.14424766   -7.0315526   -84.896554 
    9790    4.2046935   -7.2294881   0.13258034   -7.0342408   -26.306882 
    9800    2.8740811   -7.2133155   0.13737611   -7.0331039    -13.86799 
    9810    1.2599469   -7.2076643   0.15236698    -7.036519   -38.586825 
    9820   0.64471747   -7.1988951   0.15469223   -7.0345939    -29.13615 
    9830   0.80371456   -7.1922788   0.14616291   -7.0341373    6.0085474 
    9840     1.719905   -7.2073354   0.14545454   -7.0362473     1.297338 
    9850    3.4574939   -7.2371668   0.15118195   -7.0344542   -49.397015 
    9860    4.2018586   -7.2495715   0.14936851   -7.0375782   -85.405153 
    9870    3.5710232   -7.2292872   0.13683561   -7.0392288   -70.412168 
    9880    2.0153472   -7.1956672    0.1274195   -7.0382108   -59.081981 
    9890   0.89436542   -7.1851504   0.13111154   -7.0407092   -92.495164 
    9900   0.74065656   -7.1898928   0.14034138   -7.0385127   -116.31451 
    9910   0.86049266   -7.1955333   0.14338492   -7.0393235   -88.626609 
    9920    1.9040813   -7.2092582   0.14035072    -7.040529   -43.576737 
    9930    3.3254219   -7.2305222   0.14132686   -7.0396331    -32.96574 
    9940    3.7515991   -7.2500659   0.15091521   -7.0432367   -43.405766 
    9950    2.9775737   -7.2434574   0.15544096   -7.0436386   -22.756598 
    9960    1.6428245   -7.2150729   0.14646842   -7.0441198    12.036525 
    9970    1.1310782   -7.2028126   0.14008416   -7.0458708     9.824025 
    9980    1.0462682   -7.2063389   0.14723877   -7.0435065   -28.730528 
    9990    1.1932983    -7.218771   0.15613363   -7.0448524   -62.147079 
   10000     2.221928   -7.2242114   0.14646587   -7.0446298   -65.644151 
   10010    3.1448022   -7.2227801   0.13048922   -7.0454206   -68.520459 
   10020    3.3046867   -7.2273316   0.13006576   -7.0480126   -92.893903 
   10030    2.3620241   -7.2202737   0.13805816   -7.0470119   -116.04983 
   10040     1.487753   -7.2065092    0.1355082   -7.0488275   -111.25557 
   10050    1.4651776   -7.1977262   0.12757168   -7.0483174   -80.776723 
   10060    1.3797289   -7.2030314   0.13424223   -7.0482256   -58.707346 
   10070    1.5323464   -7.2251691   0.15316303   -7.0491679   -55.138411 
   10080     2.212137   -7.2404371   0.15899999   -7.0484673   -40.579772 
   10090    2.8393066   -7.2430717    0.1498377   -7.0509168   -1.3566839 
   10100    2.7371645   -7.2383039   0.14585088   -7.0516582    31.836064 
   10110    1.9274712   -7.2337994   0.15262677   -7.0524455     19.13523 
   10120    1.8192994   -7.2362434   0.15538521   -7.0537433   -20.197529 
   10130    1.9235981   -7.2269837   0.14588254   -7.0524318   -36.594632 
   10140    1.6089182   -7.2161973   0.13844546   -7.0537724   -38.074064 
   10150    1.5751417   -7.2156984   0.13941233   -7.0528101   -67.356504 
   10160     1.905403   -7.2231299   0.14103367    -7.053698    -118.9892 
   10170    2.3860254   -7.2248514   0.13431353   -7.0549764   -135.13305 
   10180    2.0993652   -7.2112846   0.12476938   -7.0552261   -104.97001 
   10190    1.6177961   -7.2056053   0.12424208   -7.0572515   -87.221497 
   10200    1.8920801   -7.2184037   0.13426467   -7.0559394   -101.58959 
   10210    2.0773877   -7.2331525   0.14499158   -7.0571994   -96.489649 
   10220    1.8559388   -7.2318857   0.14740433   -7.0568203   -40.133277 
   10230    1.5574827    -7.228658   0.14843297   -7.0570122    15.093913 
   10240    1.6995064    -7.240335   0.15678953   -7.0582159    18.654529 
   10250    1.9959065   -7.2520225   0.16417739    -7.058098    3.5210361 
   10260    1.6603298    -7.242648   0.15685528   -7.0610471     14.42548 
   10270    1.8441288   -7.2295331   0.14223074   -7.0598174    28.479805 
   10280    2.3799884   -7.2375241   0.14075594   -7.0612967   -9.4410409 
   10290    2.2702407   -7.2425298   0.14835509   -7.0603389   -77.804064 
   10300    1.6242187   -7.2298492   0.14519846   -7.0604433   -111.24585 
   10310    1.1513794    -7.208264   0.12974644   -7.0613574   -101.34526 
   10320    1.4601321   -7.2063447   0.12372438   -7.0608584   -101.88776 
   10330    1.6241965   -7.2188827   0.13151681   -7.0631588   -135.13983 
   10340    1.4698091   -7.2178708    0.1340398   -7.0619249   -142.91461 
   10350    1.8724522   -7.2198213   0.12751437   -7.0643998   -98.911696 
   10360    2.3776374    -7.227935    0.1296044   -7.0628942   -45.922708 
   10370    2.3628694   -7.2480122    0.1486153   -7.0641806   -36.339027 
   10380     1.529642   -7.2495612   0.16323374   -7.0635296   -33.824413 
   10390   0.94859646   -7.2382469   0.16007818   -7.0640308    9.7463945 
   10400    1.2610235   -7.2372181   0.15322021   -7.0652036     59.72098 
   10410    1.3374077   -7.2397753   0.15464319   -7.0651993    49.930911 
   10420    1.5913165   -7.2471661   0.15626056   -7.0671885   -11.568565 
   10430     2.255452   -7.2464819     0.147488   -7.0653785    -42.81234 
   10440    2.5742214   -7.2430446   0.13696694   -7.0677113   -40.403533 
   10450    1.9454689   -7.2290925   0.13455645   -7.0655407   -63.443736 
   10460   0.87626302   -7.2183154   0.13766417   -7.0675914   -129.79465 
   10470   0.68999357   -7.2113999   0.13521959   -7.0658966   -158.36888 
   10480    0.9904074   -7.2099885   0.12704224   -7.0681852   -124.05187 
   10490    1.1099478   -7.2061635   0.12232161   -7.0672992   -89.754861 
   10500    1.4856209   -7.2199903   0.12867259   -7.0691759   -104.21857 
   10510    2.0815654   -7.2396077   0.14008447   -7.0684994   -106.42928 
   10520    2.5204701   -7.2532751   0.14671491    -7.068995   -47.889427 
   10530    1.8253616    -7.245488   0.14917616   -7.0691065    19.167438 
   10540   0.72616125   -7.2354096   0.15604929   -7.0685375    29.228484 
   10550   0.67681036   -7.2462046   0.16643417   -7.0696832    6.8437869 
   10560   0.97475739   -7.2473796   0.16365607   -7.0691957    17.403427 
   10570    1.2449469   -7.2384658   0.14799251   -7.0719185    34.260024 
   10580    1.6777727   -7.2331851   0.13809869   -7.0700808    2.5692773 
   10590    2.2431361   -7.2487661   0.14313098   -7.0722033   -70.761304 
   10600    2.1640482   -7.2471491    0.1449355   -7.0699605   -106.58222 
   10610    1.1046842   -7.2230052   0.13409067   -7.0724503   -100.44084 
   10620   0.47816889   -7.2022723   0.12508577   -7.0700599   -101.13549 
   10630   0.63573997   -7.2130938   0.13070268    -7.072916   -135.75274 
   10640   0.90917475   -7.2202893   0.13602914   -7.0707098   -142.77924 
   10650    1.1431376   -7.2217846   0.13054133   -7.0742059   -102.66822 
   10660    1.4549959   -7.2198337   0.12646539    -7.071683    -51.40954 
   10670    2.0802371   -7.2456386   0.13997631   -7.0746583   -42.219235 
   10680    1.9656788   -7.2588383   0.15770509   -7.0718366   -36.738964 
   10690   0.91512837   -7.2495853    0.1617485   -7.0741977   -1.7488494 
   10700   0.44295073   -7.2340035   0.15551353   -7.0718882    44.446922 
   10710   0.73415782    -7.240972   0.15510306    -7.074927    37.857821 
   10720    1.0810936   -7.2449045   0.15617214   -7.0726197   -5.0027021 
   10730    1.1084566   -7.2418116   0.14945671   -7.0758344   -36.642985 
   10740     1.445421    -7.232099   0.13727741   -7.0732789   -36.961609 
   10750    1.8459559   -7.2367198    0.1333478   -7.0758598   -59.488999 
   10760    1.3278238    -7.229362   0.13646886   -7.0731032   -106.26888 
   10770   0.62404686   -7.2237579   0.13902123   -7.0754358   -137.96049 
   10780   0.53807529   -7.2152724   0.13405464   -7.0731983   -118.03374 
   10790   0.88427579   -7.2181219   0.12875124   -7.0761914   -94.386624 
   10800    1.0584577   -7.2193578    0.1294269   -7.0741556   -92.348505 
   10810   0.92708691   -7.2282965   0.13708074   -7.0773984   -92.480647 
   10820    1.2911578   -7.2370266   0.14304189   -7.0747412   -52.867009 
   10830     1.668935    -7.247855   0.14563586   -7.0773452   -7.6057748 
   10840    1.2093536   -7.2425403   0.14992874   -7.0745873    9.4638725 
   10850   0.64324099   -7.2467482   0.16046045   -7.0767008   -2.5527376 
   10860   0.74466602    -7.249792   0.16397485   -7.0747186   -1.0220516 
   10870    1.2391628   -7.2487635   0.15285325   -7.0774417    4.5023041 
   10880    1.0534642   -7.2303661   0.13878588   -7.0758794   -9.1619369 
   10890   0.83680641   -7.2283794   0.13810921   -7.0777984   -51.262534 
   10900    1.2188742   -7.2371248   0.14289433   -7.0760643   -84.083078 
   10910    1.3287806   -7.2355049   0.13863698   -7.0770637   -92.368438 
   10920   0.96404279   -7.2210013   0.13050456   -7.0761286   -91.377349 
   10930   0.69708503   -7.2203911   0.13343419   -7.0765675   -102.01557 
   10940   0.99016772    -7.233602   0.14192262   -7.0769218   -111.43839 
   10950    1.2697621   -7.2358254   0.13979012   -7.0771107   -95.427458 
   10960   0.84215318   -7.2222508   0.13114971   -7.0785496   -60.212135 
   10970   0.66255525   -7.2216953   0.13399992   -7.0778206   -33.214716 
   10980    1.0561326   -7.2433236   0.14843588    -7.079147   -30.658506 
   10990    1.2542175   -7.2519063   0.15621994   -7.0769934   -25.106137 
   11000   0.99185504   -7.2461994   0.15301274    -7.078404   -7.0735566 
   11010   0.83197951   -7.2392822   0.15035544   -7.0765269     7.254287 
   11020    1.3240635    -7.251571   0.15311758   -7.0787195   -14.382657 
   11030    1.2687395   -7.2462772   0.14992452   -7.0774434   -46.820102 
   11040   0.61897973   -7.2281258    0.1394641   -7.0794364   -59.641105 
   11050   0.53423655   -7.2181108    0.1319572   -7.0781913    -55.19495 
   11060    0.9573469   -7.2276331   0.13451073    -7.078854   -70.161116 
   11070    1.1825059   -7.2367073   0.14100933   -7.0780738   -100.07576 
   11080   0.97558317   -7.2348261   0.14251258   -7.0777733   -105.14035 
   11090     1.106635   -7.2335661   0.13879594   -7.0782769    -78.78963 
   11100     1.520756   -7.2374156   0.13678132   -7.0779689   -57.142096 
   11110    1.1320766   -7.2370799   0.14037657   -7.0798308   -61.271077 
   11120   0.48659408   -7.2298917   0.14387232   -7.0787671   -57.279353 
   11130   0.47273268   -7.2304928   0.14293944   -7.0805077   -29.372681 
   11140    1.0066848   -7.2355501   0.14192415   -7.0786222   -4.6344368 
   11150    1.2611663   -7.2475337   0.14942205   -7.0793152   -17.390672 
   11160     1.041061   -7.2511719   0.15735133   -7.0783045   -42.973684 
   11170    1.3343196   -7.2517707   0.15316153   -7.0787224   -46.046332 
   11180    1.5292463   -7.2420292      0.13996   -7.0792772   -34.796595 
   11190   0.90560222   -7.2276267   0.13480683   -7.0793228    -45.50137 
   11200   0.29654372   -7.2245441   0.13994988   -7.0801745   -78.957368 
   11210   0.48173098   -7.2268744   0.14060437   -7.0790903   -90.933848 
   11220    1.1311363   -7.2317852   0.13502314   -7.0799036   -71.031572 
   11230    1.1869609   -7.2326576   0.13626109    -7.078706   -55.064598 
   11240    1.1016225   -7.2433625    0.1476709    -7.079273   -69.082401 
   11250    1.4636177   -7.2527294   0.15178217   -7.0791334   -77.820438 
   11260    1.3729887   -7.2428039   0.14240652   -7.0799343   -48.429427 
   11270   0.65968129    -7.226689   0.13606247   -7.0807946   -13.247741 
   11280   0.16250992   -7.2248844   0.14214099   -7.0803214   -19.419168 
   11290   0.59121428   -7.2394372   0.14958655   -7.0810392   -49.562976 
   11300    1.2418976   -7.2450229   0.14701576   -7.0794979   -49.336671 
   11310    1.1735376   -7.2403517   0.14287274   -7.0799885   -27.837197 
   11320     1.199643   -7.2423664   0.14527079   -7.0792161    -38.40915 
   11330    1.4593695   -7.2491532   0.14774037   -7.0796624   -80.456707 
   11340    1.2115125   -7.2398482   0.14162634   -7.0801654   -91.772484 
   11350   0.48015459   -7.2196792   0.13245506   -7.0800679   -60.831979 
   11360   0.17610101    -7.215805   0.13207463   -7.0811057   -47.817509 
   11370   0.84827354   -7.2323691   0.14005881   -7.0796676   -74.121981 
   11380    1.2716736   -7.2467676   0.14761495   -7.0801995   -84.603202 
   11390    1.1192839   -7.2436556   0.14761196   -7.0793618   -45.540331 
   11400    1.2341598   -7.2439807   0.14586955   -7.0797172    -12.90058 
   11410    1.4269651   -7.2496597   0.14784497   -7.0805472   -28.267999 
   11420    1.0747914   -7.2461018   0.15001964   -7.0800634   -49.775759 
   11430   0.35874839   -7.2324621   0.14534342   -7.0817719   -32.778935 
   11440   0.38358549   -7.2235956   0.13742243   -7.0804562   -9.9064766 
   11450    1.0829789   -7.2353222   0.13836353   -7.0808179   -36.286954 
   11460    1.2259646   -7.2456369   0.14702583   -7.0803392   -82.170218 
   11470    1.0511043   -7.2432613   0.14831014   -7.0792855   -88.856017 
   11480    1.1447349   -7.2364303   0.13881949   -7.0805496   -66.147872 
   11490    1.3181159   -7.2316471   0.13243493   -7.0795669   -65.496539 
   11500    0.9386439   -7.2323343   0.13741852   -7.0809262   -92.804697 
   11510   0.33513537   -7.2276348   0.14144105   -7.0811988   -92.599859 
   11520   0.63778476   -7.2266957   0.13711806   -7.0800721   -53.552076 
   11530    1.2003181   -7.2367434   0.13749156   -7.0813622   -26.160393 
   11540    1.1392913   -7.2459995   0.14955295   -7.0794665   -32.958659 
   11550   0.92170499   -7.2540702   0.16030032   -7.0800328   -41.943927 
   11560    1.1143042   -7.2522468   0.15502532   -7.0806138   -18.598481 
   11570    1.3267541   -7.2435857    0.1440086   -7.0798031    5.8590791 
   11580   0.84424272   -7.2374898   0.14272135   -7.0821858   -13.696508 
   11590   0.52080036   -7.2341732   0.14569951   -7.0807116    -52.95173 
   11600    0.9504784   -7.2368145   0.14202152    -7.080627   -67.503768 
   11610    1.2118698    -7.234993   0.13556942   -7.0813618   -59.753066 
   11620    0.9849308   -7.2297203   0.13603523   -7.0790056   -71.907805 
   11630   0.78225492   -7.2336937   0.14158958   -7.0804453    -109.0123 
   11640    1.1280178   -7.2379983   0.14104787   -7.0801384   -116.38719 
   11650    1.3335696   -7.2336513   0.13416144   -7.0796143   -82.688261 
   11660   0.88253447    -7.226727   0.13153815   -7.0820355   -57.647283 
   11670   0.79271858   -7.2296327   0.13755313   -7.0802648   -61.214293 
   11680    1.1656285   -7.2450216   0.14724449   -7.0804045   -58.937195 
   11690    1.2342173   -7.2519559   0.15237155   -7.0811895   -21.673259 
   11700   0.82181443   -7.2434349   0.15228815   -7.0788984    14.596168 
   11710   0.69807803   -7.2448068   0.15395819   -7.0804444    4.7017254 
   11720     1.285051   -7.2565106   0.15679853   -7.0805596   -21.627641 
   11730    1.3714601   -7.2521101   0.15202535   -7.0796444   -24.094712 
   11740    1.0117611   -7.2372174   0.13985502   -7.0822831   -22.263427 
   11750    1.0484091   -7.2284861   0.13233074   -7.0805298   -47.791409 
   11760    1.2283656   -7.2345596   0.13662031   -7.0796317   -91.855927 
   11770    1.0424097   -7.2387655   0.14211096   -7.0811184   -112.70693 
   11780   0.56167285   -7.2236671   0.13645627   -7.0788397   -100.98308 
   11790   0.70118969   -7.2198455   0.13001316   -7.0793818   -95.680237 
   11800    1.3242996     -7.23497   0.13435218   -7.0808804   -103.73019 
   11810    1.3598489   -7.2406769   0.14139584   -7.0790139   -94.401005 
   11820    1.1335807   -7.2375579   0.13999034   -7.0806726    -61.15795 
   11830    1.1429943   -7.2352546   0.13710723   -7.0811121   -23.983341 
   11840    1.2486278    -7.243836   0.14654846    -7.078678   -5.9482809 
   11850   0.87383598   -7.2550187   0.16209793   -7.0798971   -5.0158532 
   11860    0.3760791   -7.2485865   0.16356235   -7.0794191    2.8148147 
   11870   0.90493562   -7.2442539   0.15268749   -7.0780792    12.605688 
   11880    1.5384567   -7.2500292    0.1465895   -7.0805105   -1.1224103 
   11890    1.4689084   -7.2480313   0.14609727   -7.0800413   -37.314338 
   11900    1.1923437    -7.237853   0.14131796   -7.0787643   -71.867468 
   11910    1.1357357    -7.229772   0.13225923   -7.0805857   -86.698246 
   11920    1.0517408   -7.2238025   0.12917548   -7.0789518   -91.658072 
   11930   0.49920692   -7.2192614    0.1342502    -7.077571   -109.87026 
   11940   0.29925653   -7.2226068   0.13892122   -7.0792254   -129.51357 
   11950   0.97318631   -7.2292038   0.13631463   -7.0783848    -115.2492 
   11960    1.5244834   -7.2334291   0.13282458   -7.0778835   -76.360669 
   11970    1.5000731   -7.2385976   0.13603066   -7.0802098   -51.961932 
   11980    1.1919751   -7.2414259   0.14466698   -7.0789937   -42.834922 
   11990    1.1467187   -7.2471447   0.15216376   -7.0778902   -21.404861 
   12000   0.91686148   -7.2477088   0.15474439   -7.0792994    15.022156 
   12010   0.23463236   -7.2368102   0.15538182   -7.0779315     33.49562 
   12020   0.39721278   -7.2418896   0.15901833   -7.0769512    10.627052 
   12030     1.236057   -7.2560714   0.15882552   -7.0788237   -24.279682 
   12040    1.6250189    -7.249304   0.14664733   -7.0784373   -35.907179 
   12050    1.3287265   -7.2297239   0.13238933   -7.0775312   -43.772218 
   12060    1.0241883   -7.2248557   0.13050629   -7.0790848   -79.111761 
   12070    1.0122355   -7.2301813   0.13684736   -7.0782476    -120.4755 
   12080   0.57768247   -7.2210811   0.13592414   -7.0765471   -127.74581 
   12090   0.11982723    -7.208437   0.12913708    -7.077514   -107.80061 
   12100   0.49398351   -7.2160194    0.1309738   -7.0776833   -96.729142 
   12110    1.2554145   -7.2365569   0.14124961   -7.0765966   -99.554159 
   12120     1.609297   -7.2460339   0.14426464   -7.0777842   -82.682533 
   12130    1.2675694    -7.235671   0.13827832   -7.0785007    -31.79323 
   12140    1.0535016   -7.2338222   0.14124591   -7.0768749    11.796478 
   12150     1.048029   -7.2498687   0.15727019   -7.0769786    11.903033 
   12160   0.50022669   -7.2504822   0.16584276   -7.0771841   -2.2252656 
   12170   0.28851771   -7.2379282   0.15768652   -7.0759416    7.1725749 
   12180   0.91244393   -7.2380494   0.14853349   -7.0759168    15.136757 
   12190       1.6101   -7.2487396   0.14755293   -7.0771897   -21.278661 
   12200    1.5163295   -7.2436291   0.14448261   -7.0765471   -78.693051 
   12210    1.0722665   -7.2258793   0.13389992   -7.0759983   -99.126636 
   12220    1.1307411    -7.220059   0.12636934    -7.076837   -86.389989 
   12230    1.0195314   -7.2208553   0.12968349   -7.0759766   -95.142834 
   12240   0.55840389   -7.2203634    0.1372198   -7.0748211   -130.43943 
   12250   0.50614133   -7.2219379   0.13921103   -7.0751833   -132.67725 
   12260    1.0769924   -7.2275756   0.13583194   -7.0756921   -82.537549 
   12270    1.6735036    -7.236202   0.13611328   -7.0751467   -40.549159 
   12280    1.4719457   -7.2403335   0.14287172   -7.0755239   -41.627528 
   12290    1.1294151   -7.2437285   0.15054068   -7.0763549   -37.666979 
   12300    1.3118304   -7.2471555   0.15239255   -7.0752114    6.6988162 
   12310    1.1560021   -7.2435273    0.1519718   -7.0743264    40.823715 
   12320   0.79836073    -7.242189   0.15582899   -7.0744612    13.691454 
   12330   0.84949843     -7.24641    0.1597781   -7.0739709   -34.658472 
   12340    1.4624039   -7.2475588   0.15227441   -7.0734886   -44.421306 
   12350    1.6065423   -7.2346082   0.13645146   -7.0742128   -36.200891 
   12360     1.108471    -7.220228   0.12890301   -7.0748042    -64.99682 
   12370    1.1594781   -7.2251637    0.1343356   -7.0735472    -116.1468 
   12380    1.4612869    -7.232491   0.13761633   -7.0730956   -126.79376 
   12390    1.3567994   -7.2253396   0.13173615   -7.0733817   -94.947361 
   12400   0.98800889   -7.2180895   0.13075355   -7.0726106   -79.529319 
   12410    1.0125971   -7.2285402   0.14169869   -7.0717497   -95.186442 
   12420    1.5162042   -7.2446366   0.14939025   -7.0726488   -88.650065 
   12430    1.4380802   -7.2375985   0.14236011   -7.0738052   -34.812908 
   12440    1.0698616   -7.2261799   0.13732729   -7.0729074    10.955783 
   12450    1.3417287   -7.2400984   0.14799693   -7.0721043     2.316987 
   12460    1.7130338   -7.2586441   0.16048817   -7.0726248   -22.554487 
   12470    1.6482932   -7.2534585   0.15698638   -7.0719058   -12.972998 
   12480    1.1734682   -7.2344564   0.14680008   -7.0701669    4.1755116 
   12490    1.2585562   -7.2346613   0.14558612   -7.0703176   -26.292702 
   12500    1.4543258   -7.2404626   0.14724971   -7.0715375    -82.30546 
   12510    1.0064094   -7.2251609   0.13885863   -7.0713027   -96.667371 
   12520   0.94481923   -7.2119285   0.12790449   -7.0699423   -73.040052 
   12530    1.5262538   -7.2213339   0.12830947    -7.070277   -74.592111 
   12540    2.0186209   -7.2391537   0.13818092   -7.0708871   -108.70509 
   12550    1.7534572   -7.2397332   0.14422836   -7.0693712    -112.3937 
   12560    1.1912302   -7.2277483   0.14210241   -7.0678917   -66.347817 
   12570    1.2466942   -7.2276033   0.14036008   -7.0686624   -30.882428 
   12580    1.1466115   -7.2313415   0.14397738    -7.070275   -38.308638 
   12590   0.78290145   -7.2299908   0.14878802   -7.0695344   -42.745094 
   12600    1.0143441   -7.2312907    0.1482493   -7.0679236   -11.500735 
   12610    1.7853436   -7.2395886   0.14454882   -7.0684309    11.591473 
   12620    2.3152562   -7.2499743   0.14629921   -7.0691684   -15.669976 
   12630    1.7553345   -7.2463582   0.15293852   -7.0672581   -56.778759 
   12640    1.1966916   -7.2358042     0.152506   -7.0654626   -62.682797 
   12650    1.1617764    -7.223742   0.14025628   -7.0661705    -51.24388 
   12660   0.80946027   -7.2103127   0.13030474   -7.0679437   -65.649939 
   12670   0.65126624   -7.2111233   0.13388151   -7.0675353   -96.144323 
   12680    1.1966839   -7.2239018   0.14059611   -7.0654703    -98.06024 
   12690    2.2257461   -7.2363807   0.13794261   -7.0652655   -70.305514 
   12700     2.496385   -7.2385285   0.13516369   -7.0661586   -52.643337 
   12710    1.7211119   -7.2360524   0.14476527   -7.0656356   -57.698917 
   12720     1.239066   -7.2384796   0.15632683   -7.0636857   -56.315424 
   12730   0.99095603    -7.229097   0.15110083   -7.0632269   -30.339028 
   12740   0.69626245   -7.2141073    0.1385255   -7.0652047   -5.6668142 
   12750   0.78713105   -7.2177616   0.13939552   -7.0666346    -12.38878 
   12760    1.6146522   -7.2377546    0.1492053   -7.0644845   -39.285499 
   12770     2.691185   -7.2516903   0.14944048   -7.0621402    -53.74972 
   12780    2.5342907    -7.239912   0.14010945   -7.0620314   -50.479004 
   12790    1.6275084   -7.2257116   0.13837795   -7.0630771   -57.864559 
   12800    1.1529232   -7.2237603   0.14405242   -7.0625247   -84.859173 
   12810   0.85558274   -7.2160743   0.14275097   -7.0605717   -99.504762 
   12820   0.72452647   -7.2043386   0.13319682   -7.0603434   -80.480185 
   12830   0.95617017    -7.206687   0.13028141   -7.0621547   -54.310373 
   12840     2.040012    -7.232832   0.13930935   -7.0631183   -53.542679 
   12850    2.9034123   -7.2547153    0.1504548   -7.0609879    -60.06371 
   12860    2.3899496   -7.2465852    0.1524775   -7.0584878   -38.310735 
   12870    1.5828618   -7.2313246   0.14939959   -7.0583339   -4.4016689 
   12880    1.0923971   -7.2249629   0.14862411   -7.0600576   -1.8638085 
   12890   0.90082673   -7.2248676   0.15056878   -7.0608728   -29.846067 
   12900   0.87671975   -7.2195691     0.147271   -7.0592314   -44.785616 
   12910    1.3085958   -7.2146425   0.13744261   -7.0576965   -36.995638 
   12920    2.4765714   -7.2269797   0.13212706   -7.0579417   -46.271876 
   12930    2.8804864   -7.2395754   0.13819119   -7.0584533   -86.162087 
   12940    2.2297149   -7.2362037   0.14535926   -7.0576126   -115.68901 
   12950    1.4842468   -7.2175945   0.13975476   -7.0557185   -103.09971 
   12960    1.1436911   -7.2012223   0.12968806   -7.0544886   -75.753683 
   12970    1.2201418   -7.2059182   0.13258268   -7.0551504   -73.029831 
   12980    1.1600789   -7.2184341   0.14437626    -7.056768   -79.791856 
   12990    1.7320598   -7.2293387   0.14656339   -7.0569606   -55.262714 
   13000    2.7023066    -7.236722   0.14146649   -7.0549802   -5.0512343 
   13010    2.7177348   -7.2412512   0.14783398    -7.052912    20.472028 
   13020     2.143671   -7.2486572   0.16424814   -7.0524597     1.474669 
   13030    1.6071314   -7.2420887   0.16477771   -7.0533582   -19.065986 
   13040    1.6592421   -7.2254599   0.14681928   -7.0539112   -10.665439 
   13050    1.6715209   -7.2133227   0.13531266   -7.0530976   -9.3414609 
   13060    1.4906603   -7.2124927   0.13864595   -7.0516299   -54.638629 
   13070    2.0094749   -7.2206684   0.13964585   -7.0510733   -111.35263 
   13080    2.4890147   -7.2181802   0.12976943   -7.0513144   -118.64046 
   13090    2.4209582   -7.2119876   0.12477462   -7.0511309   -95.776346 
   13100    1.9202141   -7.2118556   0.13325464    -7.049982   -105.42507 
   13110    1.5958925    -7.213674   0.14119963   -7.0486891   -135.44087 
   13120    1.9784007   -7.2154624   0.13808803   -7.0478882   -114.51982 
   13130    1.9929727   -7.2111502   0.13333597   -7.0481108    -41.58539 
   13140    1.8112609   -7.2164198    0.1403856   -7.0490391    1.0147281 
   13150    2.0412652   -7.2339649   0.15473889   -7.0488029   -9.7529879 
   13160    2.1149608   -7.2412856   0.16251876   -7.0472454    -1.609216 
   13170    2.0764388   -7.2366301   0.15985777    -7.045825    49.565116 
   13180    1.8726977   -7.2287628   0.15575798   -7.0450941    64.660682 
   13190    2.3793544   -7.2363201   0.15559317   -7.0452649   -1.5957241 
   13200    2.7543848   -7.2390393   0.15238209   -7.0456057   -71.384014 
   13210    2.2482441   -7.2161413   0.13748229    -7.045151   -74.926703 
   13220    1.7762067    -7.192314   0.12195274   -7.0438886   -66.899806 
   13230    1.5278649   -7.1863268   0.12076909   -7.0427864   -115.82307 
   13240    1.6801361   -7.1983914   0.13116544   -7.0421852   -175.30764 
   13250    1.8387183   -7.2025607   0.13313208   -7.0420243   -162.29825 
   13260    1.9006115   -7.1953448   0.12517262   -7.0418454   -102.75816 
   13270    2.6886821   -7.2092207   0.12798679   -7.0411617   -82.563663 
   13280    3.2039139     -7.23285   0.14516642   -7.0399323   -92.742619 
   13290    2.8234616    -7.235607   0.15458743   -7.0389385   -52.508538 
   13300    1.9833802   -7.2164369    0.1480697   -7.0388068    39.184352 
   13310    1.2109269   -7.2064257   0.14921443   -7.0391636    89.896523 
   13320    1.3921397   -7.2278945   0.16782174   -7.0393243    59.792012 
   13330    1.7488574   -7.2414863   0.17693314   -7.0384881    19.937557 
   13340    2.8167186   -7.2380066   0.15900573   -7.0370203    20.115901 
   13350    3.8313269   -7.2314448   0.13897288   -7.0353697    8.3594157 
   13360     3.576078   -7.2236976   0.13600123   -7.0343983   -65.910115 
   13370      2.47851   -7.2078809   0.13659182   -7.0343492   -147.81319 
   13380    1.1115209   -7.1749948   0.12341286   -7.0350158   -157.37352 
   13390   0.64504247   -7.1568445   0.11181271    -7.035418   -126.81462 
   13400    1.0354846    -7.168158    0.1181223   -7.0346028   -139.34609 
   13410    1.6085316   -7.1894453   0.13260476   -7.0328669   -177.35757 
   13420    2.8648686   -7.2108246   0.13691539    -7.031211   -151.25708 
   13430    3.9704379   -7.2236345   0.13434577   -7.0301131   -58.854294 
   13440    4.1220157   -7.2322163   0.14090054    -7.029881    4.3848249 
   13450    2.9702224   -7.2316081   0.15694142   -7.0303983    9.7052691 
   13460    1.0256724   -7.2143117   0.16785746   -7.0311676    33.553249 
   13470    0.5704253   -7.2064472   0.16675325   -7.0311923    98.224451 
   13480    1.2407282   -7.2090892   0.16093334    -7.029664    116.84218 
   13490    2.7578298   -7.2280665   0.15950013   -7.0274635    39.854862 
   13500    4.2948763   -7.2479675   0.15855239    -7.025404   -50.852939 
   13510    4.6929606    -7.239524    0.1453477   -7.0242321   -76.177455 
   13520     3.904528   -7.2067316   0.12441289   -7.0241254   -82.110727 
   13530    2.0006382   -7.1689089   0.11421135   -7.0248799    -135.3056 
   13540   0.70855037   -7.1568457   0.12056096   -7.0257245   -196.87496 
   13550    0.6299708   -7.1606678   0.12558491   -7.0256938   -190.75652 
   13560    1.2693438   -7.1623091   0.11891224   -7.0244785   -138.16268 
   13570    2.8045067   -7.1829852   0.11878888   -7.0223978   -114.63746 
   13580    4.2836983   -7.2218884   0.13787079   -7.0201732   -112.97575 
   13590    5.1061506   -7.2518659   0.15736537   -7.0183982    -65.73078 
   13600    4.6322505   -7.2423856   0.15573724   -7.0176091    29.189146 
   13610    2.3870679   -7.2033538    0.1497838    -7.017993    97.662176 
   13620    0.9707326   -7.1973541   0.16369292   -7.0191933    96.565087 
   13630    1.0439932   -7.2149866   0.17954913   -7.0198777    66.414998 
   13640    2.4896871   -7.2249801    0.1685397    -7.019334    47.367194 
   13650    4.0585187   -7.2225427   0.14453503   -7.0175193    19.587114 
   13660    4.6904836   -7.2222769   0.13737848   -7.0149912   -47.549895 
   13670    4.6935524   -7.2229806   0.14047547   -7.0125522   -127.90665 
   13680    3.3759074   -7.1909072   0.12992336   -7.0106692   -162.78331 
   13690    2.0535963   -7.1521427    0.1116088    -7.009927   -151.33063 
   13700    1.4669713   -7.1415559   0.10972957   -7.0099626   -147.89853 
   13710    1.5236899    -7.155908   0.12268437   -7.0105145    -169.6804 
   13720      2.60802   -7.1826397   0.13273959     -7.01103   -167.13394 
   13730    3.8118691   -7.2003338   0.13225905   -7.0112625   -105.53592 
   13740    4.7529103   -7.2189798   0.13736202   -7.0107802   -29.724893 
   13750    5.2100152    -7.241069   0.15384187   -7.0095768     8.952241 
   13760    3.9914875   -7.2363318   0.16919307   -7.0076494    32.382621 
   13770    2.8658442   -7.2182573    0.1698064   -7.0057382    76.584361 
   13780    2.3617582   -7.1994738   0.16035006    -7.003924    111.39524 
   13790    3.0852196   -7.2033078   0.15505883   -7.0022667    77.365126 
   13800    4.0517235   -7.2185984   0.15723536    -7.000976   -9.0633485 
   13810    4.0968297   -7.2131908   0.15217897   -6.9999525   -71.399639 
   13820    4.2456078   -7.1968832   0.13406978   -6.9995367   -88.911896 
   13830    3.9062809   -7.1762039   0.11865287   -6.9993317   -109.81595 
   13840      3.67808     -7.17557   0.12123791   -6.9995138   -159.27082 
   13850    3.6260206   -7.1835578   0.13000673   -6.9995087   -189.37295 
   13860    3.3354943   -7.1726044   0.12379586   -6.9990961   -160.06866 
   13870    3.5052604   -7.1657423   0.11541895   -6.9980808   -109.79078 
   13880     3.510047   -7.1766333   0.12765111   -6.9966683   -88.378146 
   13890    3.4780354   -7.1999308    0.1532202   -6.9948738   -77.850089 
   13900    3.9442604   -7.2116934   0.15947615   -6.9934318   -26.356761 
   13910    3.9311125   -7.1996138   0.14915477   -6.9918696    56.704941 
   13920    4.4118923   -7.2108108   0.15442853   -6.9906272     94.49812 
   13930    4.5814875   -7.2301365   0.17270521   -6.9891485    58.686417 
   13940    4.7238494   -7.2274875   0.16916597   -6.9879171    9.7183795 
   13950    4.5733514   -7.1989571   0.14399401   -6.9868016 -0.051008424 
   13960    3.3440594   -7.1671184   0.13131076   -6.9859676   -11.834118 
   13970    2.6413916    -7.164814   0.13993771   -6.9855089    -81.83421 
   13980    2.3963541   -7.1622003   0.14122335   -6.9852616   -157.71451 
   13990    3.3610414   -7.1608443   0.12550665   -6.9852445   -155.94813 
   14000    5.0582731   -7.1765039   0.11642793   -6.9846872   -106.89985 
   14010    5.7871001   -7.1964117   0.12638491   -6.9837756   -106.30007 
   14020    5.8432659   -7.2086532   0.13901916   -6.9825457   -143.67152 
   14030    4.6054262   -7.1876313   0.13781499   -6.9811768   -113.35246 
   14040    2.9232969   -7.1576433   0.13418424   -6.9798901   -13.917131 
   14050    2.1973706   -7.1566251   0.14509318   -6.9787822    35.736582 
   14060    2.2859716   -7.1741571   0.16229514   -6.9777918    3.1413729 
   14070    4.2578982   -7.2083212   0.16808215   -6.9767791   -9.5934017 
   14080     6.257942    -7.224753   0.15594056   -6.9755437    43.983033 
   14090    7.1026519   -7.2239587   0.14417231   -6.9739281    58.263931 
   14100    6.4121491   -7.2130517   0.14511665   -6.9723681   -29.916406 
   14110    3.8928543   -7.1770179   0.14803488   -6.9709637   -114.19908 
   14120    2.0234266   -7.1369785   0.13647126     -6.97035    -100.1975 
   14130    0.9651905   -7.1053636   0.12089739    -6.970081   -60.423547 
   14140    1.8699341   -7.1222363   0.12437746   -6.9699892   -99.298222 
   14150    4.6892965   -7.1822622   0.14283031   -6.9695424   -161.16533 
   14160    7.0477805   -7.2181671   0.14440783   -6.9687188   -128.39204 
   14170    8.0911588   -7.2174966   0.12902296   -6.9678827   -35.288438 
   14180    6.4474974    -7.192645   0.12966274   -6.9668884   -5.9928136 
   14190    3.4897628   -7.1709084   0.15278981    -6.966107   -44.758074 
   14200    1.3609645   -7.1496901   0.16384734   -6.9655588   -38.849901 
   14210   0.48577324   -7.1198567      0.14718   -6.9654367    33.967711 
   14220    2.5156932   -7.1434595   0.14075972   -6.9652058    55.476206 
   14230    5.7765432   -7.2074554    0.1568355    -6.964526   -22.253369 
   14240    8.2769298   -7.2493081   0.16268284   -6.9632655   -92.433957 
   14250    8.4743879   -7.2261445   0.13789315   -6.9619486   -71.260521 
   14260    5.6366941    -7.163092   0.11867119   -6.9604112   -38.913066 
   14270    3.0573016   -7.1330632   0.12819433   -6.9593027   -93.979799 
   14280    1.1796859   -7.1183954   0.14267853   -6.9581347   -164.68203 
   14290    1.0397304    -7.108604   0.13551144   -6.9575964   -132.32936 
   14300    3.3053239     -7.13342   0.12696133    -6.957196   -42.732211 
   14310    6.3408059   -7.1896386    0.1384783   -6.9566566   -26.715789 
   14320    8.9619693   -7.2473662   0.15813931   -6.9556572   -71.666687 
   14330    8.3819732   -7.2374795   0.15786892   -6.9546852   -43.446408 
   14340    5.6064339    -7.181791   0.14433882   -6.9538936    56.579107 
   14350    3.4520654   -7.1474325   0.14311751   -6.9528652    79.149377 
   14360    1.8760052   -7.1337301   0.15418234   -6.9515877   -9.9894162 
   14370    2.4097795   -7.1463006   0.15987526   -6.9505099   -74.345694 
   14380    4.4441066    -7.162869   0.14677539   -6.9498584   -43.149505 
   14390    7.4004262   -7.1899021    0.1304289   -6.9491768   -30.442017 
   14400    9.1118682   -7.2118711   0.12786331   -6.9482041   -112.32367 
   14410    7.2925906   -7.1896213   0.13398954   -6.9469426   -181.71858 
   14420    4.9771344    -7.150033   0.12966685   -6.9461867   -144.00594 
   14430    3.3694568   -7.1131135   0.11759457   -6.9453004   -78.040969 
   14440    2.8015698    -7.107366   0.12125981   -6.9443515   -88.164194 
   14450    3.4127622   -7.1414745    0.1471152   -6.9434953   -117.51708 
   14460    4.7664524   -7.1778365   0.16370112    -6.943096   -58.710999 
   14470    7.6264969    -7.210825   0.15399611   -6.9431632    45.373514 
   14480    8.2662587   -7.2111839     0.144807   -6.9431762    81.024916 
   14490    6.4604727   -7.1984747   0.15922791   -6.9429595     42.89486 
   14500    5.7130758   -7.1988054   0.17144012   -6.9422174    18.320158 
   14510    5.2988501   -7.1722682   0.15242949   -6.9408643    30.680615 
   14520    4.9686857   -7.1451602    0.1316372   -6.9394695    3.8211777 
   14530     4.179002   -7.1383642   0.13784476   -6.9382354   -85.618377 
   14540    5.1487975   -7.1627052   0.14845464   -6.9375126   -160.74386 
   14550    7.3804799   -7.1785313   0.13131503   -6.9372173   -160.08427 
   14560    7.1949929   -7.1504045   0.10628313   -6.9368869   -129.14085 
   14570    5.8961984   -7.1332629   0.10933913   -6.9360466    -143.4092 
   14580    5.4403597   -7.1444309   0.12875611   -6.9345914   -176.63297 
   14590    6.2434753   -7.1613113   0.13548798   -6.9327703    -147.2663 
   14600    6.7490411   -7.1627282   0.13121443   -6.9309257   -55.546969 
   14610    5.3828373   -7.1528955   0.14333198   -6.9293374     16.07843 
   14620    6.1871277   -7.1908995   0.17003449   -6.9286517    30.312108 
   14630    7.1009587   -7.2147002   0.18065199   -6.9282152     51.68832 
   14640    5.9599986   -7.1795375   0.16265216   -6.9280572    111.75985 
   14650    6.0573494   -7.1653126   0.14761191   -6.9274217    129.02843 
   14660    7.6406749   -7.1881103   0.14825373   -6.9259796    47.694292 
   14670    9.0449161   -7.2136597   0.15462829   -6.9242256   -63.225457 
   14680    6.7949104   -7.1682958   0.14396813    -6.923056   -106.30248 
   14690    4.3912166   -7.1119705   0.12396749   -6.9225561   -109.34928 
   14700    5.1220979   -7.1136795   0.11469673   -6.9226428   -150.77216 
   14710    5.6173862   -7.1256823   0.11908175   -6.9228787   -209.80112 
   14720    5.1915663   -7.1203488   0.11972414   -6.9232493   -209.17496 
   14730     5.008484   -7.1064325   0.10830645   -6.9234793    -148.5387 
   14740    6.8304021   -7.1324838   0.10740316     -6.92328   -105.86009 
   14750    9.5363662   -7.2000144   0.13498277   -6.9229011   -99.881025 
   14760    7.7619836   -7.2050305   0.16753818   -6.9218073   -56.503631 
   14770    4.9848029   -7.1660707   0.17017862   -6.9215983    48.094142 
   14780    4.9899424   -7.1565042   0.16019996   -6.9219339    139.30573 
   14790    4.9399307   -7.1635368   0.16667054   -6.9232413    148.31368 
   14800    4.8173693    -7.174412   0.17833015   -6.9242836    92.330638 
   14810    6.7099533   -7.1841253   0.15989809   -6.9242217    41.327939 
   14820    10.704475   -7.2136567     0.131882   -6.9222347    6.9431233 
   14830    10.107536   -7.1988433   0.12809529   -6.9201048   -55.121839 
   14840    5.5239185   -7.1428525   0.14198504   -6.9185387    -154.6612 
   14850    3.4620994   -7.1044852   0.13466708   -6.9182188   -219.53891 
   14860    3.7169449    -7.081499   0.10770188   -6.9183996    -196.8374 
   14870    4.3138652   -7.0809528  0.098152908   -6.9185058    -155.0009 
   14880    4.0940052   -7.0915846   0.11207073   -6.9184966   -170.36785 
   14890    5.2891656   -7.1195995   0.12248534   -6.9182841   -190.26474 
   14900    9.7561624   -7.1858242   0.12247082   -6.9179471   -123.27023 
   14910    11.224056   -7.2187116   0.13390457   -6.9175231   -1.1184359 
   14920    7.0907592   -7.1884024   0.16566016   -6.9170613    64.296959 
   14930    3.7022099   -7.1634749    0.1907578   -6.9175391    66.251279 
   14940    4.1879647   -7.1661793   0.18423731   -6.9195243    100.65604 
   14950    4.8810575   -7.1549774   0.16013527   -6.9220946    164.39021 
   14960    4.5313052   -7.1366435   0.14586414   -6.9232445    133.64682 
   14970    8.4200108   -7.1965312    0.1485945   -6.9224445   -14.293724 
   14980    11.442087   -7.2385893   0.14734071   -6.9207152   -122.64659 
   14990    8.4325881   -7.1748178   0.12984195   -6.9192961   -115.54252 
   15000    3.9321428   -7.0924781   0.11588573   -6.9179875   -114.55195 
   15010    2.6078978   -7.0749042   0.11888223   -6.9171537   -198.76613 
   15020    4.1919558   -7.1044761   0.12521364   -6.9167853   -258.50908 
   15030    4.4041859   -7.0955819    0.1119674   -6.9179743   -191.98212 
   15040     3.730426   -7.0720791  0.096671278   -6.9198093   -94.753952 
   15050    6.9452135    -7.136969   0.11167726   -6.9217799   -92.654349 
   15060    10.993595   -7.2364155   0.14994026   -6.9226262   -114.56439 
   15070    10.143221   -7.2425128   0.16868754   -6.9226502   -26.424649 
   15080    5.0492212   -7.1596817   0.16198218   -6.9224457    121.77148 
   15090    3.1214926    -7.136699   0.16832232   -6.9218538    164.42958 
   15100    6.1715036   -7.2007464   0.18751869   -6.9212473    87.107625 
   15110    5.5201314   -7.1755317   0.17270251   -6.9205569    39.966234 
   15120    5.4868176    -7.134036    0.1322078   -6.9200524     56.08522 
   15130    9.2006561   -7.1768078   0.11933397   -6.9203468    15.929378 
   15140     10.56445   -7.2168324   0.13778824   -6.9215911   -116.83106 
   15150    6.9440865   -7.1723883   0.14569287   -6.9232004   -212.62434 
   15160    3.1014091   -7.0934067   0.12214861   -6.9250346    -183.3687 
   15170    4.2961834   -7.0983181   0.10767752   -6.9266101   -133.98953 
   15180    6.4414456   -7.1403253   0.11729868    -6.927023   -169.44518 
   15190    5.0348195   -7.1263484   0.12542309   -6.9258861   -209.40003 
   15200    4.7429565   -7.1104924   0.11544643   -6.9243567   -135.07263 
   15210    7.5385608   -7.1506982    0.1145705   -6.9237726   -8.5326119 
   15220    10.452072   -7.2236812    0.1429806   -6.9249224    24.948299 
   15230    8.0418458   -7.2249069   0.17827278    -6.926778   -4.7197421 
   15240    3.0149159   -7.1584541   0.18473697   -6.9287827    40.429711 
   15250    5.4303105   -7.1831538   0.17103107   -6.9311891    130.81015 
   15260    7.9177186   -7.2064871   0.15556557   -6.9329155    123.13512 
   15270    5.6003945   -7.1626076   0.14688084   -6.9322582    2.8302633 
   15280    5.0407043   -7.1463591   0.14123391   -6.9299983   -81.983413 
   15290     7.922288   -7.1769115   0.12972653   -6.9291108   -65.259117 
   15300    8.8415692   -7.1836456   0.12156148   -6.9303089   -66.691547 
   15310    4.7002791   -7.1282221   0.12567042   -6.9324985   -155.66899 
   15320    3.1519517   -7.1198699    0.1384903   -6.9344027   -224.57984 
   15330    6.4923529   -7.1678607   0.13472555   -6.9363728    -175.5996 
   15340    7.3801344   -7.1613696   0.11412584   -6.9372498   -90.117364 
   15350    5.0523525   -7.1205782   0.10862142   -6.9366563   -83.432731 
   15360    3.8672381   -7.1222534   0.12932869   -6.9352872   -103.26056 
   15370    6.9175201    -7.187955   0.14907116   -6.9357848   -45.511199 
   15380    9.1172505    -7.224978   0.15067396   -6.9384201    51.685289 
   15390    4.9617704   -7.1681256   0.15389713    -6.940278    79.047379 
   15400    3.8266849   -7.1751603   0.17723445   -6.9408928    28.188301 
   15410    7.6845487   -7.2400698   0.18362145   -6.9419174  0.010085083 
   15420    7.9823242   -7.2099442   0.14825249   -6.9427228    25.531397 
   15430    4.0978516   -7.1209396   0.11731871   -6.9425463    16.283641 
   15440    3.2731154   -7.1163399   0.12448267   -6.9430746   -68.901358 
   15450    7.0406318   -7.1938146   0.14371208   -6.9451686   -144.27554 
   15460    6.8701488   -7.1857843   0.13670891   -6.9466824    -132.4634 
   15470    3.4577827   -7.1197981   0.12166698   -6.9465961   -95.450787 
   15480    4.5272095   -7.1449914   0.13107081   -6.9464468   -117.77771 
   15490    7.7185287   -7.2080134   0.14564993   -6.9473261   -153.33566 
   15500     6.932774   -7.1876238   0.13546584   -6.9488316   -112.07186 
   15510    2.7441709   -7.1080843   0.11593921   -6.9512458   -20.444955 
   15520    2.3088084   -7.1105921   0.12299144   -6.9531901    13.061745 
   15530    6.4367767   -7.2023519   0.15205695   -6.9543609   -22.444542 
   15540    6.4119486   -7.2187307   0.16977661   -6.9533901   -25.630905 
   15550    3.4775666   -7.1667842   0.16223504   -6.9527193    26.568565 
   15560     4.793947   -7.1780925   0.15306488   -6.9535784    40.179133 
   15570    8.1859441   -7.2280591   0.15068253   -6.9553729   -23.027482 
   15580    5.7839719   -7.1888298   0.14476551   -6.9578597   -78.078031 
   15590    1.1290233   -7.1062553   0.12888377   -6.9605445   -67.499651 
   15600    2.8427522   -7.1223162   0.11912578   -6.9608219   -53.216766 
   15610    6.3435614   -7.1804731   0.12606635    -6.959862   -89.630431 
   15620    5.0589069    -7.179621   0.14449355   -6.9597293   -129.95068 
   15630    3.2413779   -7.1605719   0.15286601   -6.9593962    -113.8445 
   15640    5.5692229   -7.1849773   0.14122284   -6.9607505   -65.726978 
   15650    7.9289318   -7.2133096   0.13027211   -6.9648643   -45.184738 
   15660    4.3944528   -7.1679604    0.1345673    -6.967898   -49.009336 
   15670   0.57421869   -7.1173932   0.14193493   -6.9669001   -35.488929 
   15680    3.0298398   -7.1471904   0.13691658   -6.9651169   -2.0110659 
   15690    6.3305754    -7.194923    0.1350326   -6.9655392    9.9471981 
   15700    5.1827663   -7.1977692   0.15303865   -6.9674863   -20.314767 
   15710    3.2198247   -7.1873079   0.17032649    -6.968993   -59.715731 
   15720    6.0430343   -7.2156234   0.15556381   -6.9699939   -68.187793 
   15730    7.4292658   -7.2082373   0.12754465   -6.9699665   -48.900328 
   15740    2.8640721   -7.1338865   0.12011122    -6.971089   -49.584078 
   15750    0.6140807   -7.1167537   0.13353784   -6.9740635   -90.183495 
   15760    3.7562973   -7.1700145   0.13786437   -6.9761661   -111.35089 
   15770    6.1970089   -7.1993118   0.13158639   -6.9753648   -73.309334 
   15780     4.294565   -7.1760911   0.13866292   -6.9734218   -30.318282 
   15790    3.1702507   -7.1792969   0.15886797   -6.9731794   -44.230904 
   15800    6.5318407   -7.2371038   0.16304909   -6.9767038    -72.95932 
   15810    6.2910096   -7.2174163   0.14145011   -6.9822047    -34.53023 
   15820    1.7981249   -7.1344367    0.1253581   -6.9822793    27.975179 
   15830    1.0691383   -7.1273076   0.13250694   -6.9788661    11.012884 
   15840    4.3490754   -7.1905684   0.14676558    -6.978984   -61.867419 
   15850      6.18079   -7.2229041   0.14843776   -6.9823475   -82.374035 
   15860    3.6212052   -7.1792745   0.14118151   -6.9841224    -43.74929 
   15870    3.2689577   -7.1717852   0.14067268   -6.9823918   -49.574015 
   15880    6.3632029   -7.2220791   0.14535948   -6.9818822   -114.71023 
   15890    5.3318937   -7.2026377   0.13789722   -6.9852737   -129.92977 
   15900    1.6477724   -7.1365418   0.12160222   -6.9903811   -67.727402 
   15910     1.653785   -7.1331541   0.11835834   -6.9901477   -30.045266 
   15920    5.2453367   -7.2032255   0.13847883   -6.9865699   -64.850362 
   15930    5.9317427   -7.2359321   0.16067975   -6.9868454   -81.844322 
   15940    2.8695917   -7.1920616   0.15932309   -6.9899699   -20.204388 
   15950     3.960615   -7.2004551   0.14921405   -6.9922119    34.346387 
   15960    6.4355255   -7.2385894   0.15075702    -6.991917    8.4622101 
   15970    4.3094728   -7.2092548   0.15337531   -6.9916509   -39.918298 
   15980    1.6663506   -7.1589994   0.13924958   -6.9949145   -33.066128 
   15990    2.6501799   -7.1597881    0.1217009   -6.9985888   -5.6434211 
   16000    5.6696419   -7.2102226   0.12895698    -6.996765   -43.753694 
   16010    4.8336258   -7.2165173    0.1498546   -6.9946221   -122.73845 
   16020    2.3021675   -7.1802131   0.14984976   -6.9960517   -143.67109 
   16030    3.7864459   -7.1862666   0.13052582   -6.9993074    -96.86884 
   16040    5.6728982   -7.2087124   0.12354114   -7.0006221    -70.54539 
   16050    4.0349642   -7.1934341   0.13330139   -6.9999954     -102.165 
   16060    1.6256493   -7.1621702   0.13711576   -7.0008257   -112.10234 
   16070    3.1193485   -7.1811851   0.13037042   -7.0043238   -46.239249 
   16080    5.7232549    -7.227875   0.13794161   -7.0046337     21.78873 
   16090    3.6946007   -7.2192393   0.16144143   -7.0027333    14.507111 
   16100    1.8376969   -7.2062715   0.17554627   -7.0033361   -23.514701 
   16110    4.1054706   -7.2305955   0.16342678   -7.0059806   -3.2874486 
   16120    5.3463898   -7.2312457    0.1430705   -7.0084923      44.1285 
   16130    3.2411317   -7.1915447   0.13477728   -7.0084614    13.906116 
   16140    1.8054794   -7.1713937   0.13609015   -7.0083946   -77.536609 
   16150    3.8506828   -7.2026773   0.13453536   -7.0107512   -113.81439 
   16160    4.6509114   -7.2095318   0.12893357   -7.0112808   -80.533923 
   16170    2.3918411     -7.17498   0.12933277   -7.0099991    -85.46131 
   16180    1.5866957   -7.1719968   0.13767944   -7.0106692     -151.621 
   16190    3.6048859   -7.2076891   0.14167273   -7.0122889   -167.74467 
   16200    4.9577659   -7.2200651   0.13167065   -7.0145036   -92.455171 
   16210    3.1004729   -7.1824856   0.12150172   -7.0147743   -29.821198 
   16220    1.9631113    -7.174394   0.12993794   -7.0151977   -44.955641 
   16230    3.9747786   -7.2296015   0.15324833   -7.0171129   -55.122444 
   16240    4.1301858   -7.2426238   0.16380243   -7.0172649    12.192109 
   16250    1.6174316   -7.1988606   0.15813577   -7.0166186    76.776101 
   16260    1.5861832   -7.1984464    0.1582651   -7.0165408    46.340942 
   16270    4.2930369   -7.2491823   0.16609032   -7.0191084   -24.186575 
   16280    4.5823201   -7.2436143   0.15419234   -7.0211268   -34.946681 
   16290    2.2793902   -7.1803546   0.12595447    -7.020428   -14.085977 
   16300    2.3077802   -7.1726471   0.11654025   -7.0217116   -54.449633 
   16310    3.4821757   -7.2076435    0.1321477   -7.0235973    -136.1916 
   16320    2.6427709   -7.2034048   0.14161406   -7.0224028   -161.76751 
   16330    0.8958073   -7.1646241   0.13012653   -7.0211464   -122.36541 
   16340    1.3076125   -7.1653362   0.12310816   -7.0227394   -101.01003 
   16350    3.8960027   -7.2181178    0.1352655   -7.0247861    -121.9892 
   16360     4.139771   -7.2291053   0.14338958   -7.0240163   -113.08075 
   16370    2.2035017   -7.1929191   0.13427832   -7.0257997   -42.763799 
   16380    2.2991349   -7.1953443   0.13193984   -7.0291381    22.414645 
   16390    3.2454451   -7.2272755   0.15189257   -7.0270127    30.024366 
   16400    2.1059923   -7.2303741   0.17355649   -7.0254298    14.290934 
   16410   0.45867455   -7.2065081   0.17188538   -7.0277866    25.800046 
   16420    2.1993674   -7.2170795   0.15566547   -7.0286345    41.810019 
   16430    4.5219695   -7.2400605   0.14555209   -7.0271127    7.8731794 
   16440    3.3149781   -7.2203488   0.14037902   -7.0305632   -63.322084 
   16450    1.9014416   -7.1944413   0.13245869   -7.0336435     -103.312 
   16460    2.3515422   -7.1878606   0.12263975   -7.0301733   -96.167621 
   16470    2.6821757   -7.1922461   0.12185142   -7.0304194   -104.93464 
   16480    1.4501922   -7.1857477   0.13075759   -7.0333764   -147.00734 
   16490   0.45713972   -7.1770265   0.13908826    -7.031125   -159.05024 
   16500    2.3686319   -7.2038885   0.13811649   -7.0304698   -116.02109 
   16510    4.1991897   -7.2292823   0.13146557   -7.0352318   -65.385407 
   16520    3.2355026   -7.2150394   0.13156613   -7.0352512   -42.773976 
   16530    2.0348634   -7.2082159   0.14445236   -7.0334359   -28.410621 
   16540    2.3492856   -7.2293597   0.15692533   -7.0374205    9.2152348 
   16550    2.7104937   -7.2344964    0.1572482   -7.0368508    53.062236 
   16560    1.1341114    -7.207318   0.15637405   -7.0340411     55.31551 
   16570   0.96530156   -7.2158801   0.16490752   -7.0365857    10.555197 
   16580    3.4032146   -7.2534042   0.16492903   -7.0377535   -29.457192 
   16590    3.8848159    -7.235337   0.14121924   -7.0362182   -40.331086 
   16600    2.3950113   -7.1963387   0.12086987   -7.0397735   -59.033898 
   16610    1.7074674   -7.1899271   0.12324681   -7.0412321   -101.15511 
   16620    2.3222603   -7.2068583   0.13448224   -7.0377649   -138.13219 
   16630    2.2992472   -7.2064769   0.13209623   -7.0401125   -141.37109 
   16640    0.8667214   -7.1786115   0.12486348   -7.0408303   -115.95056 
   16650    1.1957489   -7.1891694    0.1328075   -7.0385404   -100.49953 
   16660    3.1568569   -7.2357131   0.14761405   -7.0410491   -101.24828 
   16670    3.6199054   -7.2420917   0.14483142    -7.043309   -72.397558 
   16680    2.3766822   -7.2109833   0.13392722   -7.0416339   -7.7938307 
   16690    1.7063411   -7.2098043   0.14014916   -7.0442238    34.626014 
   16700    2.6320402    -7.244475   0.16048887   -7.0447581    25.496923 
   16710    2.2691513   -7.2443164   0.16798901   -7.0425079    5.4826566 
   16720    1.0238726   -7.2174977   0.15813036   -7.0441075    10.396527 
   16730    2.0286551   -7.2242179   0.14951875   -7.0444639    10.749497 
   16740    3.3610609   -7.2402765    0.1463856   -7.0437975   -35.108579 
   16750    2.8796559    -7.229816   0.14048051    -7.046417   -97.182694 
   16760    1.6436891   -7.1998576   0.12820202    -7.047158   -110.01539 
   16770    1.8479363   -7.1939141   0.12067118   -7.0457012   -89.952591 
   16780    2.7665035   -7.2149054   0.12613961   -7.0475337   -101.25166 
   16790    1.9834041   -7.2145843   0.13800621   -7.0470173   -135.65627 
   16800    1.0942552   -7.2061634   0.14319661   -7.0466579   -129.78215 
   16810    1.8993436   -7.2156697   0.13943731   -7.0479245   -73.515914 
   16820    2.9762739   -7.2295415    0.1366403   -7.0485427   -29.583465 
   16830    2.5154729   -7.2300696   0.14356864   -7.0490102   -29.418103 
   16840    1.3942674   -7.2237202   0.15157442   -7.0513655   -25.248893 
   16850     2.059918   -7.2312168   0.15004191   -7.0504738    13.632006 
   16860     2.798761   -7.2389999   0.14728585   -7.0500012    39.805124 
   16870    1.7932018   -7.2332117   0.15538347   -7.0511023    6.8570156 
   16880    1.2195428    -7.231513   0.16298289   -7.0503539   -47.209559 
   16890    2.0084559   -7.2322922   0.15172396   -7.0506341   -61.355036 
   16900    2.4691765    -7.220835   0.13114051   -7.0528938   -49.391678 
   16910    1.4828394   -7.1991451   0.12529112   -7.0517537   -67.292423 
   16920    1.1970397   -7.2054023   0.13428035   -7.0532812   -116.51963 
   16930    2.3759366    -7.225504   0.13634641   -7.0537465   -129.58687 
   16940     2.595487   -7.2199022   0.12908506   -7.0521339   -88.130321 
   16950    1.5761641   -7.2115658   0.13380407   -7.0542705   -63.309621 
   16960    1.0851822   -7.2185317    0.1491616   -7.0531965   -80.748239 
   16970    1.7383196    -7.233023   0.15361603   -7.0534989   -83.189513 
   16980     2.049488    -7.228698   0.14190463   -7.0562477    -29.36519 
   16990     1.159904   -7.2070758   0.13586005   -7.0539285    25.281923 
   17000    1.4105043   -7.2245995   0.14667232    -7.056905    5.3541112 
   17010    2.6128287   -7.2513101   0.15657676   -7.0557916    -39.12651 
   17020    2.5679706   -7.2451257   0.15227847   -7.0545741   -32.243137 
   17030    1.4142443   -7.2236877   0.14549648   -7.0571133   -7.0921079 
   17040    1.0152262   -7.2147888   0.14510453   -7.0545533   -33.842787 
   17050    1.6646762   -7.2280369   0.14631132   -7.0569152   -99.216541 
   17060    1.3702672   -7.2157475   0.13795347   -7.0573715   -107.46393 
   17070    0.8535838   -7.1957351   0.12697596   -7.0560373   -62.678474 
   17080    1.7622259   -7.2133801   0.12757786    -7.059538   -58.550928 
   17090    2.7153006   -7.2349895   0.13844703   -7.0560735   -96.751508 
   17100    2.3596733   -7.2425428   0.14876461   -7.0586095   -103.29564 
   17110    1.1589879   -7.2227411   0.14744527   -7.0580222   -47.013293 
   17120   0.86591942   -7.2130506   0.14293062   -7.0572142   -9.5775998 
   17130    1.3992659   -7.2273726   0.14613703   -7.0603809   -34.225782 
   17140     1.014032   -7.2230074   0.15037032   -7.0575239   -48.580748 
   17150   0.97212764   -7.2213041   0.14565205   -7.0611634   -19.567122 
   17160    1.9962396   -7.2259382   0.13698298   -7.0592031    4.7354849 
   17170    2.7793971   -7.2412944   0.14048742   -7.0593827   -32.534741 
   17180    2.0855204   -7.2444421   0.15278545    -7.060574   -83.043054 
   17190   0.81245038   -7.2218322   0.15133088   -7.0583925   -79.558119 
   17200   0.89810147   -7.2121166   0.13741577   -7.0613155   -55.335645 
   17210    1.1843517   -7.2072942   0.13035308   -7.0592895   -61.605336 
   17220   0.84732697   -7.2121285    0.1379199     -7.06158   -94.876387 
   17230    1.1984686   -7.2211268   0.14205392   -7.0612109   -90.473078 
   17240    2.2479006   -7.2302353   0.13596474   -7.0607677   -47.854354 
   17250    2.7802903   -7.2412018   0.13726518    -7.062499   -26.247558 
   17260    1.7664347   -7.2380966   0.15136437   -7.0604053   -42.249557 
   17270   0.76109797   -7.2344869   0.16059186   -7.0625516   -53.992531 
   17280    1.0308745   -7.2275118   0.15101722   -7.0611304   -25.619239 
   17290    1.1130181   -7.2182668   0.13881853   -7.0628598   -2.3850391 
   17300    1.0235873    -7.217536   0.13929585   -7.0629846   -24.503724 
   17310    1.4890104   -7.2289741   0.14422161   -7.0625602   -65.643899 
   17320    2.4493371   -7.2421231   0.14195123   -7.0636668   -72.961113 
   17330    2.6209795   -7.2377328   0.13629784   -7.0623717   -57.113189 
   17340    1.3992041   -7.2224687   0.13816626   -7.0634486   -68.809306 
   17350   0.80693525   -7.2183085   0.14377774   -7.0625041   -100.91764 
   17360     1.114261   -7.2238088   0.14370843   -7.0634934   -102.04816 
   17370    1.1902757   -7.2176581   0.13623425   -7.0636839   -62.898936 
   17380    1.1372809   -7.2138713   0.13290025   -7.0640209   -37.917871 
   17390    1.5930483    -7.228718   0.14002189   -7.0649532   -47.062727 
   17400    2.4778337   -7.2522214   0.15138268    -7.063909   -47.359864 
   17410    2.1996604   -7.2529893   0.15525497   -7.0649504   -16.658241 
   17420    1.0994709   -7.2307972   0.15058238   -7.0638282    5.9987142 
   17430   0.96502876   -7.2288347   0.14953771   -7.0649142   -14.519327 
   17440    1.2384785   -7.2348405   0.15183197   -7.0645502   -44.905326 
   17450    1.2502423   -7.2308211   0.14672442    -7.065463   -49.589132 
   17460    1.1305996   -7.2154142   0.13289149   -7.0656722   -46.057271 
   17470    1.6207417   -7.2172688   0.12775442   -7.0653588   -67.253187 
   17480    2.2421549   -7.2369195   0.13738622   -7.0661161   -103.40585 
   17490    1.6663233   -7.2340006   0.14449304   -7.0646726    -111.9683 
   17500   0.94049046    -7.218201   0.13794153   -7.0662424   -94.493215 
   17510   0.99278263   -7.2111266   0.13183057   -7.0644995   -75.748462 
   17520    1.3624878   -7.2269255   0.13946935   -7.0671496   -74.719951 
   17530    1.3320875   -7.2328323   0.14783231   -7.0651465   -64.103728 
   17540    1.1046959   -7.2290306    0.1442855   -7.0682806   -33.932431 
   17550    1.6261513   -7.2301938   0.14046162   -7.0654959    3.3696752 
   17560    1.9489601   -7.2485275   0.15142799   -7.0680522    9.9946862 
   17570    1.3110304   -7.2487124    0.1638117    -7.065361   -5.7125118 
   17580      1.01653   -7.2426289   0.15998019   -7.0674983   -21.389559 
   17590    1.3373462   -7.2306718   0.14502902    -7.065711   -19.117057 
   17600    1.5884674   -7.2304906   0.13847998   -7.0683361   -32.426365 
   17610    1.1575619   -7.2222408   0.13843149   -7.0665569   -70.737277 
   17620   0.95740777   -7.2181063    0.1351867   -7.0686503   -107.83738 
   17630     1.459048    -7.216776    0.1283365   -7.0666938   -106.95453 
   17640    1.5302689   -7.2194125   0.12850003   -7.0681053   -94.927348 
   17650     1.164603   -7.2200081   0.13620101   -7.0664498   -102.82505 
   17660    1.0390629   -7.2264984   0.14307578   -7.0679364   -116.05713 
   17670    1.4763189   -7.2307081   0.14184179   -7.0668631   -87.346347 
   17680    1.7107915   -7.2332834   0.13899474    -7.068791   -34.555323 
   17690    1.0782167   -7.2256294   0.14185782   -7.0677018   -4.8848978 
   17700   0.83912129   -7.2340232   0.15213584    -7.069381   -9.5736516 
   17710    1.1935861    -7.244087   0.15858087   -7.0677169   0.18257068 
   17720    1.2293397   -7.2433693   0.15608054   -7.0689666    26.319974 
   17730     1.123287   -7.2359568    0.1520023    -7.067213    25.248773 
   17740    1.3638795    -7.243017   0.15376106   -7.0689286   -25.347526 
   17750    1.8963362   -7.2469866   0.15119752    -7.067526   -70.258377 
   17760    1.5502135   -7.2295166   0.13671016    -7.069702   -77.304962 
   17770   0.75335228    -7.201857   0.12272508   -7.0679039   -74.495595 
   17780   0.64505978   -7.2051734   0.12547147   -7.0700879   -107.67581 
   17790   0.92019945   -7.2169063    0.1351322   -7.0680594   -141.16935 
   17800    1.1366485   -7.2221138   0.13532104   -7.0698521   -131.54479 
   17810    1.1321703   -7.2146374    0.1299009   -7.0678626   -86.973741 
   17820    1.5097823   -7.2292631   0.13710444   -7.0696568   -66.935514 
   17830     2.096954   -7.2501747   0.15069794   -7.0682236   -66.773103 
   17840    1.6199901   -7.2468034    0.1522417   -7.0704173   -39.970018 
   17850   0.79720084   -7.2252709   0.14436026   -7.0690291    21.402117 
   17860   0.59803642   -7.2282205   0.14845844   -7.0708489    51.435489 
   17870   0.96557487   -7.2453064   0.16183975   -7.0690757    23.356397 
   17880    1.3079397   -7.2538158   0.16464254   -7.0696797    -13.57422 
   17890     1.464959   -7.2419061   0.15129383   -7.0687784   -14.254084 
   17900    2.0528818   -7.2416464   0.14133617    -7.069714   -19.909612 
   17910    2.1035649   -7.2400327   0.13945018   -7.0692308   -71.696902 
   17920    1.2402848   -7.2246249   0.13590449   -7.0702352   -128.85382 
   17930   0.53918499   -7.2037033   0.12606587   -7.0696013   -128.96618 
   17940   0.49496213   -7.1985448   0.12108289   -7.0700849   -100.38072 
   17950    1.0095619   -7.2123188    0.1276648   -7.0696074   -107.99307 
   17960    1.2793474   -7.2269056   0.13839552   -7.0694426   -135.20998 
   17970    1.5153605   -7.2351364   0.14302415   -7.0695272    -109.7865 
   17980    2.1410003   -7.2434911   0.14221744    -7.069364   -38.651427 
   17990     2.077257   -7.2464594   0.14472194   -7.0707779    1.4979389 
   18000    1.2094522    -7.239998   0.15247426    -7.069498   -4.3120376 
   18010   0.39943306   -7.2368926   0.15914525   -7.0717941    2.4668332 
   18020   0.53604641   -7.2336249   0.15631945   -7.0693161    42.743567 
   18030     1.185195    -7.240662   0.15179348   -7.0712043    45.654054 
   18040    1.3907231   -7.2425531   0.15266919   -7.0691565   -10.727879 
   18050     1.805581    -7.251933   0.15481836   -7.0702042   -70.137843 
   18060    2.1319505   -7.2460258   0.14420226   -7.0700488   -77.754639 
   18070    1.6790555   -7.2217685   0.12725337   -7.0694904   -74.347561 
   18080   0.84281682   -7.2071439   0.12284467   -7.0717378   -110.03875 
   18090   0.33276984   -7.2036936   0.12993256   -7.0688014   -146.87504 
   18100   0.71628176   -7.2153091   0.13282685   -7.0718068   -137.77067 
   18110    1.1707053   -7.2142544   0.12788835   -7.0689178   -92.744585 
   18120    1.3538843   -7.2230931   0.13256824   -7.0703465   -75.665563 
   18130    1.7993327   -7.2455708    0.1487497   -7.0700038   -77.793657 
   18140    2.0621217   -7.2561595   0.15633986   -7.0690857   -47.752846 
   18150    1.7048394   -7.2468905   0.14958272   -7.0718988    12.186547 
   18160    0.8052089   -7.2267913   0.14591834   -7.0688721    48.449084 
   18170   0.50189067   -7.2355068   0.15606448   -7.0719621    25.227835 
   18180    1.0976798   -7.2481392   0.16228841   -7.0694909   -4.1510401 
   18190     1.358846   -7.2435904   0.15368301   -7.0696551   -7.4033749 
   18200    1.4785744   -7.2358213   0.14321287   -7.0705716    -16.18738 
   18210    1.6830093   -7.2350117   0.14154947   -7.0683786   -61.997044 
   18220    1.7277067   -7.2381486   0.14127041   -7.0711283   -116.96015 
   18230    1.3236353   -7.2207086    0.1320517   -7.0689293   -121.85712 
   18240   0.68049597   -7.2032944   0.12282242   -7.0703298   -100.06037 
   18250   0.74107094   -7.2061196   0.12440884   -7.0706658   -103.01274 
   18260    1.1189949   -7.2193342   0.13397515   -7.0686815   -121.66218 
   18270    1.1948877   -7.2305773   0.14189148   -7.0708771   -107.44928 
   18280    1.2694018   -7.2309911   0.14318407   -7.0688878   -52.049911 
   18290    1.4125843   -7.2359927   0.14508382   -7.0698557   -14.620345 
   18300    1.6230582    -7.246064   0.15164509   -7.0702288   -12.606454 
   18310    1.2553558   -7.2452674   0.15753244    -7.069025   -4.4665342 
   18320   0.80596301    -7.238162   0.15507707   -7.0710728    21.765957 
   18330    1.0936872   -7.2330351   0.14751269    -7.069222    28.949407 
   18340    1.3219003   -7.2362341   0.14690693   -7.0696255   -8.9002639 
   18350    1.2019874   -7.2395807   0.15222208   -7.0694442   -54.969121 
   18360   0.96424933   -7.2320321   0.14914173   -7.0685192   -71.020866 
   18370     1.139696    -7.222204   0.13563539   -7.0695826   -74.893668 
   18380    1.3964214   -7.2171285   0.12746422    -7.068852   -93.687971 
   18390    1.1844077   -7.2192315    0.1320734   -7.0695056     -117.738 
   18400    1.1767816   -7.2236338   0.13628789   -7.0698071    -116.7374 
   18410    1.3870072   -7.2205601    0.1309719   -7.0689161   -90.274897 
   18420    1.3588713   -7.2208437    0.1307383   -7.0698527   -67.872388 
   18430    1.0914699   -7.2289087   0.14412649   -7.0685148   -59.605466 
   18440    0.7608274   -7.2369197   0.15673262   -7.0688476   -48.301866 
   18450     1.110553   -7.2391974   0.15312671   -7.0695189   -18.692161 
   18460    1.4452857   -7.2345522   0.14490165   -7.0681099     12.05847 
   18470    1.4161545   -7.2391107   0.14821599   -7.0697883    11.508572 
   18480    1.5321768   -7.2466253   0.15476731   -7.0690224   -14.760543 
   18490    1.5975916   -7.2413374   0.14984062   -7.0676862   -35.220244 
   18500    1.3886591   -7.2307041   0.14066385   -7.0693436   -39.682241 
   18510   0.71804765   -7.2172386   0.13926125   -7.0672755   -50.038987 
   18520   0.49262696   -7.2181748   0.14340165    -7.067431   -85.267443 
   18530    1.0276031   -7.2258405   0.14136623   -7.0691588   -111.58139 
   18540    1.4227186   -7.2203888   0.13218428   -7.0670003   -95.769734 
   18550    1.6724778   -7.2220286   0.12902551   -7.0680763   -71.811878 
   18560    1.7636249    -7.231132    0.1352147   -7.0696322   -74.120227 
   18570    1.6411401   -7.2340539   0.14314262   -7.0664516   -80.877944 
   18580    1.1973239   -7.2318395   0.14601692   -7.0679776   -58.429234 
   18590   0.37957168   -7.2196134   0.14537357   -7.0685827   -17.138617 
   18600   0.39410265   -7.2198642    0.1481167   -7.0658738   -5.2437961 
   18610    1.0721989   -7.2385187   0.15448582   -7.0680527   -27.941201 
   18620    1.6873053   -7.2469824   0.15307052   -7.0687642   -33.886666 
   18630    2.0056581   -7.2381614   0.14244876   -7.0658202   -15.118046 
   18640    1.9191091   -7.2330217   0.13657881   -7.0678404   -21.839776 
   18650    1.7143746   -7.2359627   0.14260096   -7.0678107   -63.991648 
   18660   0.94891887   -7.2262038   0.14724224   -7.0648189   -92.783995 
   18670   0.22133275   -7.2099279   0.14013811   -7.0664911   -82.868182 
   18680   0.47930486   -7.2064563   0.13209803   -7.0672147   -64.966959 
   18690    1.2475032    -7.220263   0.13668588   -7.0649842   -74.885776 
   18700    1.9805845   -7.2415946   0.14541423   -7.0666617   -92.990891 
   18710    2.1654498   -7.2415798   0.14152834   -7.0677775   -71.154905 
   18720    2.0573848    -7.229828    0.1341273   -7.0650373    -24.64636 
   18730    1.7160742   -7.2336149   0.14221585   -7.0658226   -14.335091 
   18740   0.76080618   -7.2348503   0.15674586   -7.0667654   -39.276971 
   18750   0.26311573   -7.2246455   0.15605585   -7.0646682   -42.910077 
   18760   0.65876457    -7.218917   0.14409534   -7.0650034   -15.019273 
   18770    1.5791205   -7.2310697   0.14098315   -7.0665512   -10.477189 
   18780    2.2350541   -7.2444148    0.1459438   -7.0651596   -53.286342 
   18790    2.1220865   -7.2398326   0.14346743   -7.0647375   -89.819096 
   18800    1.9516922   -7.2283475   0.13343973   -7.0658196   -76.966664 
   18810    1.4154088   -7.2166037   0.13106638    -7.064442   -56.276838 
   18820   0.59428106   -7.2120685   0.13956426    -7.063647   -80.542025 
   18830    0.2989615   -7.2145385   0.14585895   -7.0642238   -111.42355 
   18840   0.81631614   -7.2178822   0.14182793   -7.0638879   -83.616484 
   18850    1.8176536   -7.2282913   0.13769974   -7.0635012   -28.163418 
   18860    2.1695558   -7.2385634   0.14173879   -7.0644894   -19.475358 
   18870    2.0059196   -7.2435619   0.14937471   -7.0642909    -44.50881 
   18880    1.8780471   -7.2422954   0.15153465   -7.0627703   -32.245841 
   18890    1.2996509   -7.2308482   0.14791795   -7.0635602     10.78469 
   18900   0.68373456   -7.2207168   0.14690941   -7.0636169    8.0216043 
   18910   0.50347259   -7.2199996   0.15063957   -7.0618562   -47.826802 
   18920    1.1872424   -7.2306668   0.15069292   -7.0622791   -80.326898 
   18930     2.029667   -7.2335762   0.13936247   -7.0639634   -60.566547 
   18940    2.0150673    -7.219973   0.12739251   -7.0625479   -53.488276 
   18950    1.8900157   -7.2181562   0.12927057   -7.0607168   -97.859807 
   18960    1.7029311   -7.2264529   0.13884463   -7.0622277    -131.5459 
   18970    1.3662995   -7.2213845   0.13841005    -7.062611    -101.2597 
   18980   0.93604837   -7.2063985   0.13245215   -7.0599955   -55.666825 
   18990   0.80035713   -7.2100603   0.13838008   -7.0597517   -56.071249 
   19000    1.5677496   -7.2391361   0.15369095   -7.0620793    -69.95945 
   19010    2.0423684   -7.2471616   0.15500313   -7.0617189   -33.407506 
   19020    1.7676119   -7.2289185   0.14349687   -7.0590771    26.474753 
   19030    1.6745522   -7.2281745    0.1434209    -7.059796    33.339438 
   19040    1.7148113   -7.2446089   0.15695077   -7.0621005   -9.7305994 
   19050    1.6807983   -7.2452108   0.15999431   -7.0601658   -33.185641 
   19060     1.164138   -7.2207203   0.14582177   -7.0575481   -22.067213 
   19070    1.1511726   -7.2122122   0.13643735   -7.0586177   -35.748165 
   19080    1.7025462   -7.2257979   0.13966871   -7.0607543   -92.908469 
   19090    1.6852103   -7.2226558   0.13830521   -7.0592341   -131.20523 
   19100    1.4390917   -7.2046014   0.12630874   -7.0568444   -113.39429 
   19110    1.3731072   -7.1986118   0.12027891   -7.0578681   -88.677749 
   19120    1.7205578   -7.2152013   0.12979904    -7.059759    -104.4972 
   19130    1.8746994   -7.2288263   0.14265681   -7.0582289   -120.01968 
   19140    1.3790596    -7.222068    0.1456691   -7.0558453   -78.440884 
   19150    1.4898757   -7.2233004   0.14491504   -7.0561802   -12.272787 
   19160    1.8052446   -7.2347503   0.14969761   -7.0581472    11.766145 
   19170    1.4903286    -7.237074   0.15711434   -7.0577477    1.9519185 
   19180    1.1276224   -7.2310009   0.15841423   -7.0557806    14.151784 
   19190    1.4559681   -7.2296223   0.15208913   -7.0558333    42.553903 
   19200    2.4187914   -7.2402368   0.14719317   -7.0569939    25.372153 
   19210    2.3671419   -7.2398179    0.1485599    -7.055978   -40.110674 
   19220     1.780024   -7.2306959   0.14983743   -7.0543289   -89.179089 
   19230    1.7301512   -7.2198838   0.14040074   -7.0536968   -93.339521 
   19240    1.5969041   -7.2035126   0.12508274   -7.0546295   -96.267439 
   19250    1.2320684   -7.1940262   0.12040543   -7.0552579   -127.88499 
   19260   0.91633188   -7.1950989   0.12736467   -7.0540772   -150.01565 
   19270    1.5621104   -7.2079414   0.13129275   -7.0533669   -127.79664 
   19280    2.6830088    -7.222236   0.12847274   -7.0537756   -87.166154 
   19290    2.6370462   -7.2272961   0.13444998   -7.0535434   -64.530118 
   19300    2.1854181   -7.2385433   0.15384281   -7.0521289   -49.471829 
   19310    1.9338935   -7.2452322   0.16535273   -7.0510566   -11.395552 
   19320    1.6466873    -7.232514   0.15630058   -7.0516711    40.142983 
   19330    1.0061015   -7.2164087   0.14819132   -7.0532224    63.637337 
   19340   0.84673524   -7.2211183     0.155046   -7.0534525    42.233357 
   19350    2.3320213   -7.2471607   0.16144901   -7.0509552    1.8976627 
   19360    3.3141956   -7.2482587   0.14994287   -7.0489209   -25.511791 
   19370    2.7899245   -7.2274251   0.13640951   -7.0494344     -48.7918 
   19380    2.0520607   -7.2176688   0.13652308   -7.0505617   -91.714043 
   19390    1.6400381   -7.2131028   0.13863984   -7.0500198   -140.08272 
   19400    1.3847294   -7.1967296   0.12790993   -7.0481816   -153.53432 
   19410   0.71973578   -7.1725804   0.11517474   -7.0466787   -128.63574 
   19420   0.91107564   -7.1789499   0.11773864   -7.0476325   -111.31333 
   19430     2.458377   -7.2186858   0.13238004    -7.049666   -118.63259 
   19440    3.4538991   -7.2442007   0.14323812   -7.0494855   -105.10731 
   19450    3.1669316    -7.240658     0.146455   -7.0470029   -43.021429 
   19460    2.2298937   -7.2296656   0.15202615    -7.044405    22.977284 
   19470    1.9033377   -7.2343729   0.16212672   -7.0438788    41.248041 
   19480    1.5456458   -7.2356629   0.16694396   -7.0456825    32.783849 
   19490   0.76370612   -7.2175429   0.15819357    -7.047967    42.272932 
   19500    1.7357177   -7.2202182   0.14669972   -7.0476492    47.516132 
   19510    3.4649029   -7.2404089   0.14400322   -7.0447646    2.7508554 
   19520    3.8167053   -7.2477337   0.14886719   -7.0419821   -72.824361 
   19530     2.794263    -7.228056   0.14539644   -7.0410137   -114.80431 
   19540    1.9032922   -7.2005752   0.13040749    -7.041801   -113.40301 
   19550    1.9499425   -7.1926151   0.12037125   -7.0431818   -120.87928 
   19560    1.4105008   -7.1886249   0.12425746   -7.0433452   -152.55307 
   19570   0.85845673   -7.1832065   0.12849721   -7.0419148   -159.54496 
   19580    1.7733118   -7.1901324   0.12341382   -7.0402891   -114.22997 
   19590    3.3315823   -7.2131668   0.12402206   -7.0394906   -61.087729 
   19600    3.9737652   -7.2434676   0.14503561   -7.0392068   -44.672623 
   19610    2.8054839   -7.2482598   0.16731201   -7.0391347   -34.627413 
   19620    1.9734872   -7.2344505   0.16603181   -7.0390058    14.268195 
   19630    2.2322705   -7.2255759   0.15380088   -7.0385051    73.255169 
   19640    1.5413828   -7.2144321   0.15390223    -7.037557    74.116938 
   19650    1.3129252   -7.2167988   0.16008226   -7.0371487    13.907209 
   19660    2.4999212   -7.2263473    0.1517119   -7.0373765   -32.352631 
   19670    3.7945527   -7.2297745   0.13598963   -7.0372307   -35.711626 
   19680    3.2607794    -7.218843   0.13427476   -7.0359694   -56.219509 
   19690     1.891151   -7.2044708   0.14165955   -7.0346255   -125.10976 
   19700     2.091461    -7.202573   0.13798745   -7.0334143   -172.89893 
   19710    2.3521414   -7.1899745   0.12223591   -7.0326822    -141.5003 
   19720    1.6724384   -7.1730672   0.11567473   -7.0324663   -93.964474 
   19730    1.4440019   -7.1795926   0.12475117   -7.0333199   -105.20212 
   19740    2.3045703    -7.205127   0.13650002   -7.0342796   -124.87717 
   19750    3.7429159   -7.2318573   0.14175914   -7.0343135     -71.2353 
   19760    3.2975752   -7.2297138   0.14751278   -7.0330538    16.260455 
   19770     1.965662   -7.2200805   0.15964955   -7.0311346    37.866726 
   19780    2.4850296   -7.2368244   0.17043435   -7.0293531    5.2990903 
   19790    2.9523495   -7.2368792   0.16485522    -7.028022    13.920583 
   19800    2.2788703   -7.2083975   0.14694187   -7.0274912    55.648209 
   19810    1.8249349   -7.1917793   0.13667956   -7.0279008    30.880902 
   19820    2.9754407    -7.215568    0.1424539    -7.028768    -64.66774 
   19830    3.5174031    -7.229367   0.14799591   -7.0289476   -118.64315 
   19840    2.1280614   -7.1979636   0.13753051   -7.0287164   -93.936376 
   19850    1.8719337   -7.1826051   0.12648834   -7.0282174   -85.832972 
   19860    2.9932833   -7.2022779   0.13028824   -7.0273776   -137.93244 
   19870    3.3415455   -7.2133804   0.13780921   -7.0257686   -164.16521 
   19880    2.4491758   -7.1896364   0.12900661   -7.0241272   -105.21095 
   19890    1.6119273   -7.1651169   0.11824999   -7.0228426   -35.955317 
   19900    2.7019497    -7.193364   0.13111275   -7.0219812   -37.775469 
   19910    3.2708293    -7.228974   0.15878853   -7.0214368   -59.084155 
   19920     2.057862   -7.2180971   0.16612811   -7.0212986   -16.730698 
   19930    2.0159841   -7.2059939   0.15426124   -7.0216863    49.445364 
   19940    3.5641284   -7.2268853   0.15153066   -7.0222347    45.731262 
   19950    4.1355084   -7.2435547   0.15932789   -7.0225909   -18.177621 
   19960    2.3918416   -7.2092178   0.15120355   -7.0223662   -47.618405 
   19970    1.7609326   -7.1786103   0.13099222    -7.021373   -27.690819 
   19980     2.906593    -7.189826   0.12678329   -7.0197227   -38.527796 
   19990    2.5348329   -7.1964248   0.14057967   -7.0180658   -104.04516 
   20000     1.620345   -7.1885434   0.14740208   -7.0169916   -144.96144 
Loop time of 0.749833 on 1 procs for 20000 steps with 6 atoms

Performance: 2304.514 ns/day, 0.010 hours/ns, 26672.610 timesteps/s
66.5% CPU use with 1 MPI tasks x no OpenMP threads

MPI task timing breakdown:
Section |  min time  |  avg time  |  max time  |%varavg| %total
---------------------------------------------------------------
Pair    | 0.055858   | 0.055858   | 0.055858   |   0.0 |  7.45
Bond    | 0.011536   | 0.011536   | 0.011536   |   0.0 |  1.54
Kspace  | 0.28932    | 0.28932    | 0.28932    |   0.0 | 38.58
Neigh   | 0.023601   | 0.023601   | 0.023601   |   0.0 |  3.15
Comm    | 0.038039   | 0.038039   | 0.038039   |   0.0 |  5.07
Output  | 0.28715    | 0.28715    | 0.28715    |   0.0 | 38.29
Modify  | 0.031728   | 0.031728   | 0.031728   |   0.0 |  4.23
Other   |            | 0.0126     |            |       |  1.68

Nlocal:    6 ave 6 max 6 min
Histogram: 1 0 0 0 0 0 0 0 0 0
Nghost:    165 ave 165 max 165 min
Histogram: 1 0 0 0 0 0 0 0 0 0
Neighs:    123 ave 123 max 123 min
Histogram: 1 0 0 0 0 0 0 0 0 0

Total # of neighbors = 123
Ave neighs/atom = 20.5
Ave special neighs/atom = 2
Neighbor list builds = 2000
Dangerous builds = 0
Total wall time: 0:00:00
